! Touchstone v1.0 generado por exportar_touchstone.py
! Linea de transmision dispersiva (skin + dielectrico)
# Hz S RI R 50
1.000000e+07 1.506973e-02 -1.301795e-03 9.794334e-01 -8.509689e-02 9.794334e-01 -8.509689e-02 1.506973e-02 -1.301795e-03
5.999000e+07 2.401850e-02 -1.352589e-02 8.337717e-01 -4.773993e-01 8.337717e-01 -4.773993e-01 2.401850e-02 -1.352589e-02
1.099800e+08 1.805412e-02 -2.442482e-02 5.473023e-01 -7.709203e-01 5.473023e-01 -7.709203e-01 1.805412e-02 -2.442482e-02
1.599700e+08 6.200894e-03 -2.752602e-02 1.705806e-01 -9.167444e-01 1.705806e-01 -9.167444e-01 6.200894e-03 -2.752602e-02
2.099600e+08 -4.145240e-03 -2.241001e-02 -2.272327e-01 -8.923939e-01 -2.272327e-01 -8.923939e-01 -4.145240e-03 -2.241001e-02
2.599500e+08 -8.303467e-03 -1.311147e-02 -5.741306e-01 -7.063055e-01 -5.741306e-01 -7.063055e-01 -8.303467e-03 -1.311147e-02
3.099400e+08 -5.922360e-03 -5.038185e-03 -8.086671e-01 -3.957553e-01 -8.086671e-01 -3.957553e-01 -5.922360e-03 -5.038185e-03
3.599300e+08 -2.316061e-04 -1.767167e-03 -8.908047e-01 -1.960816e-02 -8.908047e-01 -1.960816e-02 -2.316061e-04 -1.767167e-03
4.099200e+08 4.480228e-03 -3.437135e-03 -8.087016e-01 3.525741e-01 -8.087016e-01 3.525741e-01 4.480228e-03 -3.437135e-03
4.599100e+08 5.504799e-03 -7.367221e-03 -5.804244e-01 6.531745e-01 -5.804244e-01 6.531745e-01 5.504799e-03 -7.367221e-03
5.099000e+08 2.956832e-03 -1.017964e-02 -2.502779e-01 8.287303e-01 -2.502779e-01 8.287303e-01 2.956832e-03 -1.017964e-02
5.598900e+08 -8.658805e-04 -9.940383e-03 1.196364e-01 8.494733e-01 1.196364e-01 8.494733e-01 -8.658805e-04 -9.940383e-03
6.098800e+08 -3.308703e-03 -7.046595e-03 4.610501e-01 7.143940e-01 4.610501e-01 7.143940e-01 -3.308703e-03 -7.046595e-03
6.598700e+08 -3.072747e-03 -3.537946e-03 7.121019e-01 4.509237e-01 7.121019e-01 4.509237e-01 -3.072747e-03 -3.537946e-03
7.098600e+08 -7.881145e-04 -1.517708e-03 8.284917e-01 1.094244e-01 8.284917e-01 1.094244e-01 -7.881145e-04 -1.517708e-03
7.598500e+08 1.715746e-03 -1.806418e-03 7.912287e-01 -2.463723e-01 7.912287e-01 -2.463723e-01 1.715746e-03 -1.806418e-03
8.098400e+08 2.773987e-03 -3.629112e-03 6.096692e-01 -5.511759e-01 6.096692e-01 -5.511759e-01 2.773987e-03 -3.629112e-03
8.598300e+08 1.924884e-03 -5.366963e-03 3.193724e-01 -7.500555e-01 3.193724e-01 -7.500555e-01 1.924884e-03 -5.366963e-03
9.098200e+08 1.539488e-05 -5.729717e-03 -2.478683e-02 -8.083129e-01 -2.478683e-02 -8.083129e-01 1.539488e-05 -5.729717e-03
9.598100e+08 -1.550207e-03 -4.535497e-03 -3.589471e-01 -7.175196e-01 -3.589471e-01 -7.175196e-01 -1.550207e-03 -4.535497e-03
1.009800e+09 -1.806359e-03 -2.656573e-03 -6.220836e-01 -4.966491e-01 -6.220836e-01 -4.966491e-01 -1.806359e-03 -2.656573e-03
1.059790e+09 -7.876191e-04 -1.290856e-03 -7.671218e-01 -1.881731e-01 -7.671218e-01 -1.881731e-01 -7.876191e-04 -1.290856e-03
1.109780e+09 6.436976e-04 -1.130876e-03 -7.693206e-01 1.500681e-01 -7.693206e-01 1.500681e-01 6.436976e-04 -1.130876e-03
1.159770e+09 1.483823e-03 -1.985277e-03 -6.304503e-01 4.556696e-01 -6.304503e-01 4.556696e-01 1.483823e-03 -1.985277e-03
1.209760e+09 1.265507e-03 -3.033578e-03 -3.780745e-01 6.731367e-01 -3.780745e-01 6.731367e-01 1.265507e-03 -3.033578e-03
1.259750e+09 2.856206e-04 -3.455923e-03 -6.013002e-02 7.639365e-01 -6.013002e-02 7.639365e-01 2.856206e-04 -3.455923e-03
1.309740e+09 -7.019286e-04 -2.970914e-03 2.641453e-01 7.133043e-01 2.641453e-01 7.133043e-01 -7.019286e-04 -2.970914e-03
1.359730e+09 -1.049239e-03 -1.941197e-03 5.352256e-01 5.326000e-01 5.352256e-01 5.326000e-01 -1.049239e-03 -1.941197e-03
1.409720e+09 -6.256738e-04 -1.039420e-03 7.042011e-01 2.568442e-01 7.042011e-01 2.568442e-01 -6.256738e-04 -1.039420e-03
1.459710e+09 1.722737e-04 -7.584245e-04 7.415773e-01 -6.203899e-02 7.415773e-01 -6.203899e-02 1.722737e-04 -7.584245e-04
1.509700e+09 7.609548e-04 -1.112151e-03 6.423940e-01 -3.649721e-01 6.423940e-01 -3.649721e-01 7.609548e-04 -1.112151e-03
1.559690e+09 7.832625e-04 -1.697709e-03 4.267836e-01 -5.966432e-01 4.267836e-01 -5.966432e-01 7.832625e-04 -1.697709e-03
1.609680e+09 3.106163e-04 -2.024560e-03 1.359305e-01 -7.155835e-01 1.359305e-01 -7.155835e-01 3.106163e-04 -2.024560e-03
1.659670e+09 -2.698879e-04 -1.852448e-03 -1.757700e-01 -7.015713e-01 -1.757700e-01 -7.015713e-01 -2.698879e-04 -1.852448e-03
1.709660e+09 -5.610309e-04 -1.311531e-03 -4.508640e-01 -5.590398e-01 -4.508640e-01 -5.590398e-01 -5.610309e-04 -1.311531e-03
1.759650e+09 -4.205869e-04 -7.573512e-04 -6.394107e-01 -3.159204e-01 -6.394107e-01 -3.159204e-01 -4.205869e-04 -7.573512e-04
1.809640e+09 -1.475233e-05 -4.982647e-04 -7.080292e-01 -1.819702e-02 -7.080292e-01 -1.819702e-02 -1.475233e-05 -4.982647e-04
1.859630e+09 3.430454e-04 -5.980182e-04 -6.457871e-01 2.787701e-01 -6.457871e-01 2.787701e-01 3.430454e-04 -5.980182e-04
1.909620e+09 4.255908e-04 -8.743512e-04 -4.658958e-01 5.205192e-01 -4.658958e-01 5.205192e-01 4.255908e-04 -8.743512e-04
1.959610e+09 2.284499e-04 -1.062947e-03 -2.029596e-01 6.634575e-01 -2.029596e-01 6.634575e-01 2.284499e-04 -1.062947e-03
2.009600e+09 -6.680882e-05 -1.008508e-03 9.365809e-02 6.827049e-01 9.365809e-02 6.827049e-01 -6.680882e-05 -1.008508e-03
2.059590e+09 -2.485115e-04 -7.485328e-04 3.690849e-01 5.764027e-01 3.690849e-01 5.764027e-01 -2.485115e-04 -7.485328e-04
2.109580e+09 -2.228479e-04 -4.511308e-04 5.730744e-01 3.657440e-01 5.730744e-01 3.657440e-01 -2.228479e-04 -4.511308e-04
2.159570e+09 -5.369572e-05 -2.755062e-04 6.691575e-01 9.077787e-02 6.691575e-01 9.077787e-02 -5.369572e-05 -2.755062e-04
2.209560e+09 1.135075e-04 -2.657092e-04 6.411449e-01 -1.971860e-01 6.411449e-01 -1.971860e-01 1.135075e-04 -2.657092e-04
2.259550e+09 1.689599e-04 -3.455484e-04 4.958260e-01 -4.451365e-01 4.958260e-01 -4.451365e-01 1.689599e-04 -3.455484e-04
2.309540e+09 1.061607e-04 -3.987189e-04 2.614196e-01 -6.081052e-01 2.614196e-01 -6.081052e-01 1.061607e-04 -3.987189e-04
2.359530e+09 1.468507e-06 -3.599512e-04 -1.788475e-02 -6.573076e-01 -1.788475e-02 -6.573076e-01 1.468507e-06 -3.599512e-04
2.409520e+09 -6.171185e-05 -2.486116e-04 -2.902416e-01 -5.852095e-01 -2.902416e-01 -5.852095e-01 -6.171185e-05 -2.486116e-04
2.459510e+09 -5.632472e-05 -1.315993e-04 -5.057598e-01 -4.066304e-01 -5.057598e-01 -4.066304e-01 -5.632472e-05 -1.315993e-04
2.509500e+09 -1.672146e-05 -5.847581e-05 -6.256283e-01 -1.557332e-01 -6.256283e-01 -1.557332e-01 -1.672146e-05 -5.847581e-05
2.559490e+09 6.858389e-06 -2.574405e-05 -6.290917e-01 1.204947e-01 -6.290917e-01 1.204947e-01 6.858389e-06 -2.574405e-05
2.609480e+09 -2.712090e-06 5.833788e-06 -5.170229e-01 3.710275e-01 -5.170229e-01 3.710275e-01 -2.712090e-06 5.833788e-06
2.659470e+09 -1.978931e-05 6.469080e-05 -3.114835e-01 5.502144e-01 -3.114835e-01 5.502144e-01 -1.978931e-05 6.469080e-05
2.709460e+09 -9.172908e-06 1.385862e-04 -5.140329e-02 6.260849e-01 -5.140329e-02 6.260849e-01 -9.172908e-06 1.385862e-04
2.759450e+09 3.267442e-05 1.881396e-04 2.147796e-01 5.860395e-01 2.147796e-01 5.860395e-01 3.267442e-05 1.881396e-04
2.809440e+09 6.857669e-05 1.894486e-04 4.381275e-01 4.389124e-01 4.381275e-01 4.389124e-01 6.857669e-05 1.894486e-04
2.859430e+09 5.351923e-05 1.647940e-04 5.781893e-01 2.130771e-01 5.781893e-01 2.130771e-01 5.351923e-05 1.647940e-04
2.909420e+09 -1.956046e-05 1.706297e-04 6.103141e-01 -4.900931e-02 6.103141e-01 -4.900931e-02 -1.956046e-05 1.706297e-04
2.959410e+09 -1.035334e-04 2.499178e-04 5.299748e-01 -2.987754e-01 5.299748e-01 -2.987754e-01 -1.035334e-04 2.499178e-04
3.009400e+09 -1.291040e-04 3.889019e-04 3.533428e-01 -4.905265e-01 3.533428e-01 -4.905265e-01 -1.291040e-04 3.889019e-04
3.059390e+09 -6.229051e-05 5.180173e-04 1.140595e-01 -5.897934e-01 1.140595e-01 -5.897934e-01 -6.229051e-05 5.180173e-04
3.109380e+09 5.996513e-05 5.617860e-04 -1.431581e-01 -5.795167e-01 -1.431581e-01 -5.795167e-01 5.996513e-05 5.617860e-04
3.159370e+09 1.492950e-04 5.009702e-04 -3.708629e-01 -4.629585e-01 -3.708629e-01 -4.629585e-01 1.492950e-04 5.009702e-04
3.209360e+09 1.306296e-04 3.963455e-04 -5.276199e-01 -2.628492e-01 -5.276199e-01 -2.628492e-01 1.306296e-04 3.963455e-04
3.259350e+09 3.955867e-06 3.503632e-04 -5.855361e-01 -1.697191e-02 -5.855361e-01 -1.697191e-02 3.955867e-06 3.503632e-04
3.309340e+09 -1.470300e-04 4.313144e-04 -5.352102e-01 2.289602e-01 -5.352102e-01 2.289602e-01 -1.470300e-04 4.313144e-04
3.359330e+09 -2.112618e-04 6.167488e-04 -3.872282e-01 4.297930e-01 -3.872282e-01 4.297930e-01 -2.112618e-04 6.167488e-04
3.409320e+09 -1.330760e-04 8.022263e-04 -1.699721e-01 5.492119e-01 -1.699721e-01 5.492119e-01 -1.330760e-04 8.022263e-04
3.459310e+09 4.069422e-05 8.738554e-04 7.581042e-02 5.662984e-01 7.581042e-02 5.662984e-01 4.069422e-05 8.738554e-04
3.509300e+09 1.881393e-04 7.935871e-04 3.046382e-01 4.791791e-01 3.046382e-01 4.791791e-01 1.881393e-04 7.935871e-04
3.559290e+09 1.983944e-04 6.331322e-04 4.747037e-01 3.051350e-01 4.747037e-01 3.051350e-01 1.983944e-04 6.331322e-04
3.609280e+09 5.500417e-05 5.276110e-04 5.555026e-01 7.719319e-02 5.555026e-01 7.719319e-02 5.500417e-05 5.276110e-04
3.659270e+09 -1.462877e-04 5.791118e-04 5.332942e-01 -1.621299e-01 5.332942e-01 -1.621299e-01 -1.462877e-04 5.791118e-04
3.709260e+09 -2.621312e-04 7.795497e-04 4.134183e-01 -3.687492e-01 4.134183e-01 -3.687492e-01 -2.621312e-04 7.795497e-04
3.759250e+09 -2.045962e-04 1.011134e-03 2.190811e-01 -5.051235e-01 2.190811e-01 -5.051235e-01 -2.045962e-04 1.011134e-03
3.809240e+09 -8.130384e-06 1.127649e-03 -1.312276e-02 -5.470672e-01 -1.312276e-02 -5.470672e-01 -8.130384e-06 1.127649e-03
3.859230e+09 1.904340e-04 1.060044e-03 -2.400915e-01 -4.880277e-01 -2.400915e-01 -4.880277e-01 1.904340e-04 1.060044e-03
3.909220e+09 2.475366e-04 8.697196e-04 -4.202091e-01 -3.400742e-01 -4.202091e-01 -3.400742e-01 2.475366e-04 8.697196e-04
3.959210e+09 1.169078e-04 7.086182e-04 -5.209671e-01 -1.314555e-01 -5.209671e-01 -1.314555e-01 1.169078e-04 7.086182e-04
4.009200e+09 -1.137015e-04 7.121317e-04 -5.248235e-01 9.878279e-02 -5.248235e-01 9.878279e-02 -1.137015e-04 7.121317e-04
4.059190e+09 -2.818910e-04 9.007275e-04 -4.322412e-01 3.080976e-01 -4.322412e-01 3.080976e-01 -2.818910e-04 9.007275e-04
4.109180e+09 -2.657036e-04 1.161974e-03 -2.613861e-01 4.583015e-01 -2.613861e-01 4.583015e-01 -2.657036e-04 1.161974e-03
4.159170e+09 -7.250918e-05 1.328110e-03 -4.457812e-02 5.225215e-01 -4.457812e-02 5.225215e-01 -7.250918e-05 1.328110e-03
4.209160e+09 1.632280e-04 1.295373e-03 1.778130e-01 4.899971e-01 1.778130e-01 4.899971e-01 1.632280e-04 1.295373e-03
4.259150e+09 2.737248e-04 1.099912e-03 3.648769e-01 3.678628e-01 3.648769e-01 3.678628e-01 2.737248e-04 1.099912e-03
4.309140e+09 1.775138e-04 8.946703e-04 4.826815e-01 1.796235e-01 4.826815e-01 1.796235e-01 1.775138e-04 8.946703e-04
4.359130e+09 -6.063739e-05 8.420222e-04 5.104199e-01 -3.935820e-02 5.104199e-01 -3.935820e-02 -6.063739e-05 8.420222e-04
4.409120e+09 -2.735950e-04 9.978032e-04 4.440736e-01 -2.484969e-01 4.440736e-01 -2.484969e-01 -2.735950e-04 9.978032e-04
4.459110e+09 -3.096962e-04 1.269796e-03 2.969496e-01 -4.094992e-01 2.969496e-01 -4.094992e-01 -3.096962e-04 1.269796e-03
4.509100e+09 -1.412054e-04 1.481486e-03 9.703114e-02 -4.933676e-01 9.703114e-02 -4.933676e-01 -1.412054e-04 1.481486e-03
4.559090e+09 1.143396e-04 1.496860e-03 -1.183356e-01 -4.856150e-01 -1.183356e-01 -4.856150e-01 1.143396e-04 1.496860e-03
4.609080e+09 2.761945e-04 1.317766e-03 -3.094107e-01 -3.887529e-01 -3.094107e-01 -3.887529e-01 2.761945e-04 1.317766e-03
4.659070e+09 2.284057e-04 1.084025e-03 -4.413869e-01 -2.216286e-01 -4.413869e-01 -2.216286e-01 2.284057e-04 1.084025e-03
4.709060e+09 2.874516e-06 9.752723e-04 -4.907236e-01 -1.577006e-02 -4.907236e-01 -1.577006e-02 2.874516e-06 9.752723e-04
4.759050e+09 -2.421021e-04 1.083622e-03 -4.493357e-01 1.905539e-01 -4.493357e-01 1.905539e-01 -2.421021e-04 1.083622e-03
4.809040e+09 -3.333377e-04 1.347623e-03 -3.258958e-01 3.594412e-01 -3.258958e-01 3.594412e-01 -3.333377e-04 1.347623e-03
4.859030e+09 -2.055758e-04 1.594912e-03 -1.440438e-01 4.603118e-01 -1.440438e-01 4.603118e-01 -2.055758e-04 1.594912e-03
4.909020e+09 5.163544e-05 1.663860e-03 6.213006e-02 4.754380e-01 6.213006e-02 4.754380e-01 5.163544e-05 1.663860e-03
4.959010e+09 2.567049e-04 1.518211e-03 2.544691e-01 4.030488e-01 2.544691e-01 4.030488e-01 2.567049e-04 1.518211e-03
5.009000e+09 2.642991e-04 1.273250e-03 3.978057e-01 2.574686e-01 3.978057e-01 2.574686e-01 2.642991e-04 1.273250e-03
5.058990e+09 6.836715e-05 1.114643e-03 4.663856e-01 6.629649e-02 4.663856e-01 6.629649e-02 6.836715e-05 1.114643e-03
5.108980e+09 -1.932456e-04 1.167205e-03 4.484869e-01 -1.348179e-01 4.484869e-01 -1.348179e-01 -1.932456e-04 1.167205e-03
5.158970e+09 -3.360679e-04 1.406499e-03 3.484083e-01 -3.088160e-01 3.484083e-01 -3.088160e-01 -3.360679e-04 1.406499e-03
5.208960e+09 -2.593952e-04 1.675965e-03 1.854926e-01 -4.240526e-01 1.854926e-01 -4.240526e-01 -2.593952e-04 1.675965e-03
5.258950e+09 -1.750692e-05 1.797525e-03 -9.601177e-03 -4.600444e-01 -9.601177e-03 -4.600444e-01 -1.750692e-05 1.797525e-03
5.308940e+09 2.187053e-04 1.697404e-03 -2.006602e-01 -4.111026e-01 -2.006602e-01 -4.111026e-01 2.187053e-04 1.697404e-03
5.358930e+09 2.825152e-04 1.458172e-03 -3.526344e-01 -2.872059e-01 -3.526344e-01 -2.872059e-01 2.825152e-04 1.458172e-03
5.408920e+09 1.290676e-04 1.260253e-03 -4.380607e-01 -1.119850e-01 -4.380607e-01 -1.119850e-01 1.290676e-04 1.260253e-03
5.458910e+09 -1.331811e-04 1.254420e-03 -4.420189e-01 8.177671e-02 -4.420189e-01 8.177671e-02 -1.331811e-04 1.254420e-03
5.508900e+09 -3.193280e-04 1.455493e-03 -3.647262e-01 2.582704e-01 -3.647262e-01 2.582704e-01 -3.193280e-04 1.455493e-03
5.558890e+09 -2.986454e-04 1.732261e-03 -2.213218e-01 3.852738e-01 -2.213218e-01 3.852738e-01 -2.986454e-04 1.732261e-03
5.608880e+09 -8.658238e-05 1.900466e-03 -3.891390e-02 4.400279e-01 -3.891390e-02 4.400279e-01 -8.658238e-05 1.900466e-03
5.658870e+09 1.666537e-04 1.852881e-03 1.485374e-01 4.133085e-01 1.485374e-01 4.133085e-01 1.666537e-04 1.852881e-03
5.708860e+09 2.824928e-04 1.634562e-03 3.065377e-01 3.109641e-01 3.065377e-01 3.109641e-01 2.824928e-04 1.634562e-03
5.758850e+09 1.799325e-04 1.410433e-03 4.064003e-01 1.526683e-01 4.064003e-01 1.526683e-01 1.799325e-04 1.410433e-03
5.808840e+09 -6.788238e-05 1.348549e-03 4.304493e-01 -3.185448e-02 4.304493e-01 -3.185448e-02 -6.788238e-05 1.348549e-03
5.858830e+09 -2.859696e-04 1.501743e-03 3.751386e-01 -2.084040e-01 3.751386e-01 -2.084040e-01 -2.859696e-04 1.501743e-03
5.908820e+09 -3.212614e-04 1.771081e-03 2.515408e-01 -3.446377e-01 2.515408e-01 -3.446377e-01 -3.212614e-04 1.771081e-03
5.958810e+09 -1.502083e-04 1.976394e-03 8.314591e-02 -4.159902e-01 8.314591e-02 -4.159902e-01 -1.502083e-04 1.976394e-03
6.008800e+09 1.054586e-04 1.983569e-03 -9.859589e-02 -4.100964e-01 -9.859589e-02 -4.100964e-01 1.054586e-04 1.983569e-03
6.058790e+09 2.653243e-04 1.798602e-03 -2.601425e-01 -3.289236e-01 -2.601425e-01 -3.289236e-01 2.653243e-04 1.798602e-03
6.108780e+09 2.175973e-04 1.562421e-03 -3.720459e-01 -1.882463e-01 -3.720459e-01 -1.882463e-01 2.175973e-04 1.562421e-03
6.158770e+09 -2.765868e-06 1.450805e-03 -4.143150e-01 -1.458963e-02 -4.143150e-01 -1.458963e-02 -2.765868e-06 1.450805e-03
6.208760e+09 -2.397370e-04 1.550535e-03 -3.799794e-01 1.597659e-01 -3.799794e-01 1.597659e-01 -2.397370e-04 1.550535e-03
6.258750e+09 -3.268429e-04 1.799080e-03 -2.762208e-01 3.027798e-01 -2.762208e-01 3.027798e-01 -3.268429e-04 1.799080e-03
6.308740e+09 -2.042590e-04 2.029747e-03 -1.228927e-01 3.885343e-01 -1.228927e-01 3.885343e-01 -2.042590e-04 2.029747e-03
6.358730e+09 4.003117e-05 2.089692e-03 5.127060e-02 4.019257e-01 5.127060e-02 4.019257e-01 4.003117e-05 2.089692e-03
6.408720e+09 2.333191e-04 1.947201e-03 2.140338e-01 3.413166e-01 2.140338e-01 3.413166e-01 2.333191e-04 1.947201e-03
6.458710e+09 2.402514e-04 1.712910e-03 3.356225e-01 2.186834e-01 3.356225e-01 2.186834e-01 2.402514e-04 1.712910e-03
6.508700e+09 5.757032e-05 1.560803e-03 3.941650e-01 5.726162e-02 3.941650e-01 5.726162e-02 5.757032e-05 1.560803e-03
6.558690e+09 -1.848210e-04 1.605440e-03 3.796208e-01 -1.128514e-01 3.796208e-01 -1.128514e-01 -1.848210e-04 1.605440e-03
6.608680e+09 -3.163426e-04 1.822065e-03 2.954902e-01 -2.603028e-01 2.954902e-01 -2.603028e-01 -3.163426e-04 1.822065e-03
6.658670e+09 -2.459026e-04 2.065348e-03 1.580177e-01 -3.582577e-01 1.580177e-01 -3.582577e-01 -2.459026e-04 2.065348e-03
6.708660e+09 -2.506232e-05 2.172603e-03 -6.935226e-03 -3.892783e-01 -6.935226e-03 -3.892783e-01 -2.506232e-05 2.172603e-03
6.758650e+09 1.895972e-04 2.078167e-03 -1.687507e-01 -3.484213e-01 -1.687507e-01 -3.484213e-01 1.895972e-04 2.078167e-03
6.808640e+09 2.474579e-04 1.858490e-03 -2.977330e-01 -2.440052e-01 -2.977330e-01 -2.440052e-01 2.474579e-04 1.858490e-03
6.858630e+09 1.095057e-04 1.676997e-03 -3.705540e-01 -9.593196e-02 -3.705540e-01 -9.593196e-02 1.095057e-04 1.676997e-03
6.908620e+09 -1.254841e-04 1.668481e-03 -3.744672e-01 6.809993e-02 -3.744672e-01 6.809993e-02 -1.254841e-04 1.668481e-03
6.958610e+09 -2.917459e-04 1.844839e-03 -3.095296e-01 2.177724e-01 -3.095296e-01 2.177724e-01 -2.917459e-04 1.844839e-03
7.008600e+09 -2.735562e-04 2.088085e-03 -1.884471e-01 3.257468e-01 -1.884471e-01 3.257468e-01 -2.735562e-04 2.088085e-03
7.058590e+09 -8.585303e-05 2.234567e-03 -3.409820e-02 3.726524e-01 -3.409820e-02 3.726524e-01 -8.585303e-05 2.234567e-03
7.108580e+09 1.377250e-04 2.190277e-03 1.247832e-01 3.505566e-01 1.247832e-01 3.505566e-01 1.377250e-04 2.190277e-03
7.158570e+09 2.399327e-04 1.995984e-03 2.589530e-01 2.642938e-01 2.589530e-01 2.642938e-01 2.399327e-04 1.995984e-03
7.208560e+09 1.504679e-04 1.797071e-03 3.440357e-01 1.304340e-01 3.440357e-01 1.304340e-01 1.504679e-04 1.797071e-03
7.258550e+09 -6.575918e-05 1.740355e-03 3.649484e-01 -2.589364e-02 3.649484e-01 -2.589364e-02 -6.575918e-05 1.740355e-03
7.308540e+09 -2.557566e-04 1.871129e-03 3.185671e-01 -1.757137e-01 3.185671e-01 -1.757137e-01 -2.557566e-04 1.871129e-03
7.358530e+09 -2.867785e-04 2.102641e-03 2.141668e-01 -2.915705e-01 2.141668e-01 -2.915705e-01 -2.867785e-04 2.102641e-03
7.408520e+09 -1.391367e-04 2.278522e-03 7.157882e-02 -3.525554e-01 7.157882e-02 -3.525554e-01 -1.391367e-04 2.278522e-03
7.458510e+09 8.139762e-05 2.283268e-03 -8.257010e-02 -3.480753e-01 -8.257010e-02 -3.480753e-01 8.139762e-05 2.283268e-03
7.508500e+09 2.193010e-04 2.122685e-03 -2.198262e-01 -2.796842e-01 -2.198262e-01 -2.796842e-01 2.193010e-04 2.122685e-03
7.558490e+09 1.789288e-04 1.918287e-03 -3.151572e-01 -1.606619e-01 -3.151572e-01 -1.606619e-01 1.789288e-04 1.918287e-03
7.608480e+09 -9.219737e-06 1.820664e-03 -3.515138e-01 -1.344296e-02 -3.515138e-01 -1.344296e-02 -9.219737e-06 1.820664e-03
7.658470e+09 -2.115013e-04 1.903578e-03 -3.228722e-01 1.346072e-01 -3.228722e-01 1.346072e-01 -2.115013e-04 1.903578e-03
7.708460e+09 -2.861148e-04 2.113278e-03 -2.352187e-01 2.562754e-01 -2.352187e-01 2.562754e-01 -2.861148e-04 2.113278e-03
7.758450e+09 -1.825634e-04 2.307836e-03 -1.053157e-01 3.294980e-01 -1.053157e-01 3.294980e-01 -1.825634e-04 2.307836e-03
7.808440e+09 2.417437e-05 2.357752e-03 4.249736e-02 3.413585e-01 4.249736e-02 3.413585e-01 2.417437e-05 2.357752e-03
7.858430e+09 1.878464e-04 2.236512e-03 1.808602e-01 2.903585e-01 1.808602e-01 2.903585e-01 1.878464e-04 2.236512e-03
7.908420e+09 1.943397e-04 2.037782e-03 2.844528e-01 1.865674e-01 2.844528e-01 1.865674e-01 1.943397e-04 2.037782e-03
7.958410e+09 4.117964e-05 1.908161e-03 3.346252e-01 4.964293e-02 3.346252e-01 4.964293e-02 4.117964e-05 1.908161e-03
8.008400e+09 -1.622628e-04 1.943784e-03 3.227501e-01 -9.488733e-02 3.227501e-01 -9.488733e-02 -1.622628e-04 1.943784e-03
8.058390e+09 -2.729123e-04 2.123675e-03 2.516967e-01 -2.203810e-01 2.516967e-01 -2.203810e-01 -2.729123e-04 2.123675e-03
8.108380e+09 -2.146598e-04 2.326070e-03 1.351761e-01 -3.039883e-01 1.351761e-01 -3.039883e-01 -2.146598e-04 2.326070e-03
8.158370e+09 -3.072937e-05 2.415091e-03 -4.897401e-03 -3.308088e-01 -4.897401e-03 -3.308088e-01 -3.072937e-05 2.415091e-03
8.208360e+09 1.482659e-04 2.336099e-03 -1.425235e-01 -2.965411e-01 -1.425235e-01 -2.965411e-01 1.482659e-04 2.336099e-03
8.258350e+09 1.970199e-04 2.152811e-03 -2.524390e-01 -2.081573e-01 -2.524390e-01 -2.081573e-01 1.970199e-04 2.152811e-03
8.308340e+09 8.319859e-05 2.000998e-03 -3.147516e-01 -8.249600e-02 -3.147516e-01 -8.249600e-02 8.319859e-05 2.000998e-03
8.358330e+09 -1.112511e-04 1.992395e-03 -3.185359e-01 5.693987e-02 -3.185359e-01 5.693987e-02 -1.112511e-04 1.992395e-03
8.408320e+09 -2.491200e-04 2.136818e-03 -2.637416e-01 1.843758e-01 -2.637416e-01 1.843758e-01 -2.491200e-04 2.136818e-03
8.458310e+09 -2.347962e-04 2.336767e-03 -1.610828e-01 2.765260e-01 -1.610828e-01 2.765260e-01 -2.347962e-04 2.336767e-03
8.508300e+09 -8.059440e-05 2.457244e-03 -2.995112e-02 3.168449e-01 -2.995112e-02 3.168449e-01 -8.059440e-05 2.457244e-03
8.558290e+09 1.034429e-04 2.420808e-03 1.052427e-01 2.984933e-01 1.052427e-01 2.984933e-01 1.034429e-04 2.420808e-03
8.608280e+09 1.880134e-04 2.260937e-03 2.196100e-01 2.254885e-01 2.196100e-01 2.254885e-01 1.880134e-04 2.260937e-03
8.658270e+09 1.153480e-04 2.096955e-03 2.923628e-01 1.118471e-01 2.923628e-01 1.118471e-01 1.153480e-04 2.096955e-03
8.708260e+09 -6.141672e-05 2.049239e-03 3.105887e-01 -2.110130e-02 3.105887e-01 -2.110130e-02 -6.141672e-05 2.049239e-03
8.758250e+09 -2.170858e-04 2.154948e-03 2.715367e-01 -1.487135e-01 2.715367e-01 -1.487135e-01 -2.170858e-04 2.154948e-03
8.808240e+09 -2.431081e-04 2.343268e-03 1.830114e-01 -2.475972e-01 1.830114e-01 -2.475972e-01 -2.431081e-04 2.343268e-03
8.858230e+09 -1.232955e-04 2.486596e-03 6.182281e-02 -2.998954e-01 6.182281e-02 -2.998954e-01 -1.232955e-04 2.486596e-03
8.908220e+09 5.624562e-05 2.490702e-03 -6.940047e-02 -2.965073e-01 -6.940047e-02 -2.965073e-01 5.624562e-05 2.490702e-03
8.958210e+09 1.689261e-04 2.360164e-03 -1.864335e-01 -2.386651e-01 -1.864335e-01 -2.386651e-01 1.689261e-04 2.360164e-03
9.008200e+09 1.368770e-04 2.193658e-03 -2.679242e-01 -1.375944e-01 -2.679242e-01 -1.375944e-01 1.368770e-04 2.193658e-03
9.058190e+09 -1.530894e-05 2.113467e-03 -2.992858e-01 -1.234180e-02 -2.992858e-01 -1.234180e-02 -1.530894e-05 2.113467e-03
9.108180e+09 -1.793625e-04 2.179552e-03 -2.753028e-01 1.138107e-01 -2.753028e-01 1.138107e-01 -1.793625e-04 2.179552e-03
9.158170e+09 -2.403864e-04 2.348566e-03 -2.009869e-01 2.176701e-01 -2.009869e-01 2.176701e-01 -2.403864e-04 2.348566e-03
9.208160e+09 -1.573488e-04 2.505780e-03 -9.054442e-02 2.803931e-01 -9.054442e-02 2.803931e-01 -1.573488e-04 2.505780e-03
9.258150e+09 9.358640e-06 2.546468e-03 3.533407e-02 2.909014e-01 3.533407e-02 2.909014e-01 9.358640e-06 2.546468e-03
9.308140e+09 1.417562e-04 2.449021e-03 1.533469e-01 2.478329e-01 1.533469e-01 2.478329e-01 1.417562e-04 2.449021e-03
9.358130e+09 1.477194e-04 2.288759e-03 2.418917e-01 1.596866e-01 2.418917e-01 1.596866e-01 1.477194e-04 2.288759e-03
9.408120e+09 2.502058e-05 2.183719e-03 2.850174e-01 4.315259e-02 2.850174e-01 4.315259e-02 2.502058e-05 2.183719e-03
9.458110e+09 -1.385319e-04 2.211402e-03 2.752927e-01 -8.004408e-02 2.752927e-01 -8.004408e-02 -1.385319e-04 2.211402e-03
9.508100e+09 -2.279457e-04 2.355202e-03 2.150799e-01 -1.871904e-01 2.150799e-01 -1.871904e-01 -2.279457e-04 2.355202e-03
9.558090e+09 -1.819152e-04 2.517521e-03 1.159933e-01 -2.587699e-01 1.159933e-01 -2.587699e-01 -1.819152e-04 2.517521e-03
9.608080e+09 -3.484942e-05 2.589325e-03 -3.334860e-03 -2.820139e-01 -3.334860e-03 -2.820139e-01 -3.484942e-05 2.589325e-03
9.658070e+09 1.087268e-04 2.526600e-03 -1.207545e-01 -2.531757e-01 -1.207545e-01 -2.531757e-01 1.087268e-04 2.526600e-03
9.708060e+09 1.484083e-04 2.380091e-03 -2.147070e-01 -1.781204e-01 -2.147070e-01 -1.781204e-01 1.484083e-04 2.380091e-03
9.758050e+09 5.807152e-05 2.258289e-03 -2.681803e-01 -7.114328e-02 -2.681803e-01 -7.114328e-02 5.807152e-05 2.258289e-03
9.808040e+09 -9.705322e-05 2.250616e-03 -2.717863e-01 4.774924e-02 -2.717863e-01 4.774924e-02 -9.705322e-05 2.250616e-03
9.858030e+09 -2.074819e-04 2.365192e-03 -2.254026e-01 1.565780e-01 -2.254026e-01 1.565780e-01 -2.074819e-04 2.365192e-03
9.908020e+09 -1.967661e-04 2.524479e-03 -1.380951e-01 2.354515e-01 -1.380951e-01 2.354515e-01 -1.967661e-04 2.524479e-03
9.958010e+09 -7.442096e-05 2.620896e-03 -2.635210e-02 2.701982e-01 -2.635210e-02 2.701982e-01 -7.442096e-05 2.620896e-03
1.000800e+10 7.213057e-05 2.592553e-03 8.902534e-02 2.549096e-01 8.902534e-02 2.549096e-01 7.213057e-05 2.592553e-03
1.005799e+10 1.399698e-04 2.465782e-03 1.867933e-01 1.929366e-01 1.867933e-01 1.929366e-01 1.399698e-04 2.465782e-03
1.010798e+10 8.290947e-05 2.335277e-03 2.491740e-01 9.617385e-02 2.491740e-01 9.617385e-02 8.290947e-05 2.335277e-03
1.015797e+10 -5.713992e-05 2.296753e-03 2.650853e-01 -1.721943e-02 2.650853e-01 -1.721943e-02 -5.713992e-05 2.296753e-03
1.020796e+10 -1.809293e-04 2.379997e-03 2.321049e-01 -1.262238e-01 2.321049e-01 -1.262238e-01 -1.809293e-04 2.379997e-03
1.025795e+10 -2.022191e-04 2.529127e-03 1.568215e-01 -2.108533e-01 1.568215e-01 -2.108533e-01 -2.022191e-04 2.529127e-03
1.030794e+10 -1.078675e-04 2.643086e-03 5.352761e-02 -2.558170e-01 5.352761e-02 -2.558170e-01 -1.078675e-04 2.643086e-03
1.035793e+10 3.419294e-05 2.647057e-03 -5.849083e-02 -2.532789e-01 -5.849083e-02 -2.532789e-01 3.419294e-05 2.647057e-03
1.040792e+10 1.238030e-04 2.544338e-03 -1.585520e-01 -2.042172e-01 -1.585520e-01 -2.042172e-01 1.238030e-04 2.544338e-03
1.045791e+10 9.914668e-05 2.412737e-03 -2.283947e-01 -1.181504e-01 -2.283947e-01 -1.181504e-01 9.914668e-05 2.412737e-03
1.050790e+10 -2.066802e-05 2.348924e-03 -2.555082e-01 -1.129486e-02 -2.555082e-01 -1.129486e-02 -2.066802e-05 2.348924e-03
1.055789e+10 -1.503232e-04 2.400527e-03 -2.353692e-01 9.648684e-02 -2.353692e-01 9.648684e-02 -1.503232e-04 2.400527e-03
1.060788e+10 -1.990530e-04 2.533652e-03 -1.721874e-01 1.853758e-01 -1.721874e-01 1.853758e-01 -1.990530e-04 2.533652e-03
1.065787e+10 -1.341936e-04 2.657954e-03 -7.803745e-02 2.392382e-01 -7.803745e-02 2.392382e-01 -1.341936e-04 2.657954e-03
1.070786e+10 -3.042518e-06 2.690750e-03 2.944389e-02 2.485510e-01 2.944389e-02 2.485510e-01 -3.042518e-06 2.690750e-03
1.075785e+10 1.015572e-04 2.614694e-03 1.303592e-01 2.120810e-01 1.303592e-01 2.120810e-01 1.015572e-04 2.614694e-03
1.080784e+10 1.068952e-04 2.488803e-03 2.062316e-01 1.370228e-01 2.062316e-01 1.370228e-01 1.068952e-04 2.488803e-03
1.085783e+10 1.088452e-05 2.405904e-03 2.433852e-01 3.758584e-02 2.433852e-01 3.758584e-02 1.088452e-05 2.405904e-03
1.090782e+10 -1.176773e-04 2.427167e-03 2.354069e-01 -6.769282e-02 2.354069e-01 -6.769282e-02 -1.176773e-04 2.427167e-03
1.095781e+10 -1.884078e-04 2.539879e-03 1.842470e-01 -1.594012e-01 1.842470e-01 -1.594012e-01 -1.884078e-04 2.539879e-03
1.100780e+10 -1.528899e-04 2.667593e-03 9.977105e-02 -2.208294e-01 9.977105e-02 -2.208294e-01 -1.528899e-04 2.667593e-03
1.105779e+10 -3.780269e-05 2.724650e-03 -2.138022e-03 -2.410115e-01 -2.138022e-03 -2.410115e-01 -3.780269e-05 2.724650e-03
1.110778e+10 7.501087e-05 2.676223e-03 -1.025631e-01 -2.166797e-01 -1.025631e-01 -2.166797e-01 7.501087e-05 2.676223e-03
1.115777e+10 1.066988e-04 2.561785e-03 -1.830624e-01 -1.527827e-01 -1.830624e-01 -1.527827e-01 1.066988e-04 2.561785e-03
1.120776e+10 3.646830e-05 2.466251e-03 -2.290537e-01 -6.148791e-02 -2.290537e-01 -6.148791e-02 3.646830e-05 2.466251e-03
1.125775e+10 -8.487702e-05 2.459836e-03 -2.324532e-01 4.013221e-02 -2.324532e-01 4.013221e-02 -8.487702e-05 2.459836e-03
1.130774e+10 -1.716795e-04 2.549232e-03 -1.930914e-01 1.332900e-01 -1.930914e-01 1.332900e-01 -1.716795e-04 2.549232e-03
1.135773e+10 -1.639011e-04 2.674021e-03 -1.186597e-01 2.009539e-01 -1.186597e-01 2.009539e-01 -1.639011e-04 2.674021e-03
1.140772e+10 -6.864693e-05 2.750066e-03 -2.321288e-02 2.309596e-01 -2.321288e-02 2.309596e-01 -6.864693e-05 2.750066e-03
1.145771e+10 4.596039e-05 2.728729e-03 7.548179e-02 2.181941e-01 7.548179e-02 2.181941e-01 4.596039e-05 2.728729e-03
1.150770e+10 9.945088e-05 2.630252e-03 1.592496e-01 1.654601e-01 1.592496e-01 1.654601e-01 9.945088e-05 2.630252e-03
1.155769e+10 5.546571e-05 2.528420e-03 2.128535e-01 8.287661e-02 2.128535e-01 8.287661e-02 5.546571e-05 2.528420e-03
1.160768e+10 -5.359550e-05 2.498055e-03 2.267628e-01 -1.405940e-02 2.267628e-01 -1.405940e-02 -5.359550e-05 2.498055e-03
1.165767e+10 -1.504141e-04 2.562710e-03 1.988441e-01 -1.073783e-01 1.988441e-01 -1.073783e-01 -1.504141e-04 2.562710e-03
1.170766e+10 -1.675731e-04 2.679094e-03 1.346745e-01 -1.799667e-01 1.346745e-01 -1.799667e-01 -1.675731e-04 2.679094e-03
1.175765e+10 -9.450286e-05 2.768496e-03 4.643430e-02 -2.187036e-01 4.643430e-02 -2.187036e-01 -9.450286e-05 2.768496e-03
1.180764e+10 1.612267e-05 2.772413e-03 -4.940168e-02 -2.168294e-01 -4.940168e-02 -2.168294e-01 1.612267e-05 2.772413e-03
1.185763e+10 8.630371e-05 2.693083e-03 -1.351377e-01 -1.751206e-01 -1.351377e-01 -1.751206e-01 8.630371e-05 2.693083e-03
1.190762e+10 6.767047e-05 2.590864e-03 -1.951228e-01 -1.016672e-01 -1.951228e-01 -1.016672e-01 6.767047e-05 2.590864e-03
1.195761e+10 -2.523111e-05 2.541028e-03 -2.186055e-01 -1.030780e-02 -2.186055e-01 -1.030780e-02 -2.523111e-05 2.541028e-03
1.200760e+10 -1.262080e-04 2.580900e-03 -2.016577e-01 8.197547e-02 -2.016577e-01 8.197547e-02 -1.262080e-04 2.580900e-03
1.205759e+10 -1.645857e-04 2.684436e-03 -1.478238e-01 1.582109e-01 -1.478238e-01 1.582109e-01 -1.645857e-04 2.684436e-03
1.210758e+10 -1.146778e-04 2.781539e-03 -6.739039e-02 2.045567e-01 -6.739039e-02 2.045567e-01 -1.146778e-04 2.781539e-03
1.215757e+10 -1.294557e-05 2.807819e-03 2.457625e-02 2.128114e-01 2.457625e-02 2.128114e-01 -1.294557e-05 2.807819e-03
1.220756e+10 6.857656e-05 2.749493e-03 1.110498e-01 1.818620e-01 1.110498e-01 1.818620e-01 6.857656e-05 2.749493e-03
1.225755e+10 7.324802e-05 2.652124e-03 1.761943e-01 1.178131e-01 1.761943e-01 1.178131e-01 7.324802e-05 2.652124e-03
1.230754e+10 -8.681096e-07 2.587732e-03 2.082620e-01 3.278818e-02 2.082620e-01 3.278818e-02 -8.681096e-07 2.587732e-03
1.235753e+10 -1.006182e-04 2.604001e-03 2.017095e-01 -5.736236e-02 2.017095e-01 -5.736236e-02 -1.006182e-04 2.604001e-03
1.240752e+10 -1.558763e-04 2.691387e-03 1.581504e-01 -1.360142e-01 1.581504e-01 -1.360142e-01 -1.558763e-04 2.691387e-03
1.245751e+10 -1.288485e-04 2.790799e-03 8.598287e-02 -1.888324e-01 8.598287e-02 -1.888324e-01 -1.288485e-04 2.790799e-03
1.250750e+10 -3.990942e-05 2.835771e-03 -1.225322e-03 -2.063822e-01 -1.225322e-03 -2.063822e-01 -3.990942e-05 2.835771e-03
1.255749e+10 4.766628e-05 2.799040e-03 -8.728546e-02 -1.858109e-01 -8.728546e-02 -1.858109e-01 4.766628e-05 2.799040e-03
1.260748e+10 7.268125e-05 2.710897e-03 -1.563912e-01 -1.313031e-01 -1.563912e-01 -1.313031e-01 7.268125e-05 2.710897e-03
1.265747e+10 1.874118e-05 2.637000e-03 -1.960196e-01 -5.323675e-02 -1.960196e-01 -5.323675e-02 1.874118e-05 2.637000e-03
1.270746e+10 -7.508676e-05 2.631866e-03 -1.991985e-01 3.378991e-02 -1.991985e-01 3.378991e-02 -7.508676e-05 2.631866e-03
1.275745e+10 -1.425602e-04 2.700974e-03 -1.657288e-01 1.136861e-01 -1.657288e-01 1.136861e-01 -1.425602e-04 2.700974e-03
1.280744e+10 -1.370327e-04 2.797812e-03 -1.021496e-01 1.718414e-01 -1.021496e-01 1.718414e-01 -1.370327e-04 2.797812e-03
1.285743e+10 -6.369771e-05 2.857304e-03 -2.046520e-02 1.977961e-01 -2.046520e-02 1.977961e-01 -6.369771e-05 2.857304e-03
1.290742e+10 2.496558e-05 2.841613e-03 6.411878e-02 1.871192e-01 6.411878e-02 1.871192e-01 2.496558e-05 2.841613e-03
1.295741e+10 6.670667e-05 2.766094e-03 1.360243e-01 1.421599e-01 1.360243e-01 1.421599e-01 6.670667e-05 2.766094e-03
1.300740e+10 3.317445e-05 2.687609e-03 1.821682e-01 7.154389e-02 1.821682e-01 7.154389e-02 3.317445e-05 2.687609e-03
1.305739e+10 -5.088042e-05 2.664059e-03 1.943405e-01 -1.147828e-02 1.943405e-01 -1.147828e-02 -5.088042e-05 2.664059e-03
1.310738e+10 -1.258510e-04 2.713904e-03 1.706619e-01 -9.151550e-02 1.706619e-01 -9.151550e-02 -1.258510e-04 2.713904e-03
1.315737e+10 -1.395467e-04 2.803978e-03 1.158626e-01 -1.538876e-01 1.158626e-01 -1.538876e-01 -1.395467e-04 2.803978e-03
1.320736e+10 -8.352592e-05 2.873584e-03 4.034317e-02 -1.873158e-01 4.034317e-02 -1.873158e-01 -8.352592e-05 2.873584e-03
1.325735e+10 1.791934e-06 2.877401e-03 -4.179686e-02 -1.859604e-01 -4.179686e-02 -1.859604e-01 1.791934e-06 2.877401e-03
1.330734e+10 5.624549e-05 2.816870e-03 -1.153893e-01 -1.504368e-01 -1.153893e-01 -1.504368e-01 5.624549e-05 2.816870e-03
1.335733e+10 4.232057e-05 2.738350e-03 -1.669970e-01 -8.763422e-02 -1.669970e-01 -8.763422e-02 4.232057e-05 2.738350e-03
1.340732e+10 -2.904731e-05 2.699915e-03 -1.873649e-01 -9.383695e-03 -1.873649e-01 -9.383695e-03 -2.904731e-05 2.699915e-03
1.345731e+10 -1.069867e-04 2.730570e-03 -1.730779e-01 6.976888e-02 -1.730779e-01 6.976888e-02 -1.069867e-04 2.730570e-03
1.350730e+10 -1.369526e-04 2.810511e-03 -1.271264e-01 1.352648e-01 -1.271264e-01 1.352648e-01 -1.369526e-04 2.810511e-03
1.355729e+10 -9.890116e-05 2.885843e-03 -5.828966e-02 1.752084e-01 -5.828966e-02 1.752084e-01 -9.890116e-05 2.885843e-03
1.360728e+10 -2.067055e-05 2.906848e-03 2.053872e-02 1.825259e-01 2.053872e-02 1.825259e-01 -2.067055e-05 2.906848e-03
1.365727e+10 4.233388e-05 2.862646e-03 9.476390e-02 1.562150e-01 9.476390e-02 1.562150e-01 4.233388e-05 2.862646e-03
1.370726e+10 4.634704e-05 2.788096e-03 1.507904e-01 1.014650e-01 1.507904e-01 1.014650e-01 4.634704e-05 2.788096e-03
1.375725e+10 -1.039041e-05 2.738611e-03 1.785109e-01 2.863851e-02 1.785109e-01 2.863851e-02 -1.039041e-05 2.738611e-03
1.380724e+10 -8.716392e-05 2.751074e-03 1.731268e-01 -4.868826e-02 1.731268e-01 -4.868826e-02 -8.716392e-05 2.751074e-03
1.385723e+10 -1.299994e-04 2.818406e-03 1.359751e-01 -1.162543e-01 1.359751e-01 -1.162543e-01 -1.299994e-04 2.818406e-03
1.390722e+10 -1.096116e-04 2.895310e-03 7.421805e-02 -1.617421e-01 7.421805e-02 -1.617421e-01 -1.096116e-04 2.895310e-03
1.395721e+10 -4.141500e-05 2.930609e-03 -5.346106e-04 -1.770217e-01 -5.346106e-04 -1.770217e-01 -4.141500e-05 2.930609e-03
1.400720e+10 2.605625e-05 2.903105e-03 -7.440576e-02 -1.596009e-01 -7.440576e-02 -1.596009e-01 2.605625e-05 2.903105e-03
1.405719e+10 4.565727e-05 2.835849e-03 -1.338258e-01 -1.130246e-01 -1.338258e-01 -1.130246e-01 4.565727e-05 2.835849e-03
1.410718e+10 4.543058e-06 2.779225e-03 -1.680236e-01 -4.615977e-02 -1.680236e-01 -4.615977e-02 4.543058e-06 2.779225e-03
1.415717e+10 -6.748216e-05 2.775261e-03 -1.709771e-01 2.849025e-02 -1.709771e-01 2.849025e-02 -6.748216e-05 2.775261e-03
1.420716e+10 -1.195627e-04 2.828416e-03 -1.424705e-01 9.712200e-02 -1.424705e-01 9.712200e-02 -1.195627e-04 2.828416e-03
1.425715e+10 -1.157026e-04 2.903152e-03 -8.807282e-02 1.471827e-01 -8.807282e-02 1.471827e-01 -1.157026e-04 2.903152e-03
1.430714e+10 -5.964099e-05 2.949490e-03 -1.805426e-02 1.696643e-01 -1.805426e-02 1.696643e-01 -5.964099e-05 2.949490e-03
1.435713e+10 8.484370e-06 2.938185e-03 5.455105e-02 1.607227e-01 5.455105e-02 1.607227e-01 8.484370e-06 2.938185e-03
1.440712e+10 4.084115e-05 2.880781e-03 1.163697e-01 1.223301e-01 1.163697e-01 1.223301e-01 4.084115e-05 2.880781e-03
1.445711e+10 1.545776e-05 2.820803e-03 1.561510e-01 6.185146e-02 1.561510e-01 6.185146e-02 1.545776e-05 2.820803e-03
1.450710e+10 -4.890034e-05 2.802762e-03 1.668125e-01 -9.365125e-03 1.668125e-01 -9.365125e-03 -4.890034e-05 2.802762e-03
1.455709e+10 -1.065845e-04 2.841049e-03 1.466987e-01 -7.811652e-02 1.466987e-01 -7.811652e-02 -1.065845e-04 2.841049e-03
1.460708e+10 -1.174431e-04 2.910428e-03 9.982802e-02 -1.317906e-01 9.982802e-02 -1.317906e-01 -1.174431e-04 2.910428e-03
1.465707e+10 -7.476955e-05 2.964394e-03 3.509565e-02 -1.606782e-01 3.509565e-02 -1.606782e-01 -7.476955e-05 2.964394e-03
1.470706e+10 -9.375029e-06 2.968047e-03 -3.541285e-02 -1.597277e-01 -3.541285e-02 -1.597277e-01 -9.375029e-06 2.968047e-03
1.475705e+10 3.262236e-05 2.922259e-03 -9.867616e-02 -1.294252e-01 -9.867616e-02 -1.294252e-01 3.262236e-05 2.922259e-03
1.480704e+10 2.229409e-05 2.862411e-03 -1.431406e-01 -7.564703e-02 -1.431406e-01 -7.564703e-02 2.229409e-05 2.862411e-03
1.485703e+10 -3.220595e-05 2.833044e-03 -1.608287e-01 -8.523634e-03 -1.608287e-01 -8.523634e-03 -3.220595e-05 2.833044e-03
1.490702e+10 -9.201776e-05 2.856576e-03 -1.487680e-01 5.946714e-02 -1.487680e-01 5.946714e-02 -9.201776e-05 2.856576e-03
1.495701e+10 -1.152842e-04 2.918050e-03 -1.094855e-01 1.158180e-01 -1.094855e-01 1.158180e-01 -1.152842e-04 2.918050e-03
1.500700e+10 -8.644501e-05 2.976267e-03 -5.048583e-02 1.502917e-01 -5.048583e-02 1.502917e-01 -8.644501e-05 2.976267e-03
1.505699e+10 -2.662284e-05 2.993049e-03 1.718027e-02 1.567787e-01 1.718027e-02 1.567787e-01 -2.662284e-05 2.993049e-03
1.510698e+10 2.180560e-05 2.959851e-03 8.098384e-02 1.343780e-01 8.098384e-02 1.343780e-01 2.180560e-05 2.959851e-03
1.515697e+10 2.520208e-05 2.903184e-03 1.292364e-01 8.750812e-02 1.292364e-01 8.750812e-02 2.520208e-05 2.903184e-03
1.520696e+10 -1.799675e-05 2.865455e-03 1.532298e-01 2.503943e-02 1.532298e-01 2.503943e-02 -1.799675e-05 2.865455e-03
1.525695e+10 -7.677783e-05 2.875048e-03 1.488057e-01 -4.138251e-02 1.488057e-01 -4.138251e-02 -7.677783e-05 2.875048e-03
1.530694e+10 -1.098148e-04 2.926758e-03 1.170731e-01 -9.950661e-02 1.170731e-01 -9.950661e-02 -1.098148e-04 2.926758e-03
1.535693e+10 -9.452531e-05 2.986047e-03 6.414888e-02 -1.387345e-01 6.414888e-02 -1.387345e-01 -9.452531e-05 2.986047e-03
1.540692e+10 -4.249934e-05 3.013705e-03 -1.780343e-05 -1.520513e-01 -1.780343e-05 -1.520513e-01 -4.249934e-05 3.013705e-03
1.545691e+10 9.226276e-06 2.993330e-03 -6.351462e-02 -1.372783e-01 -6.351462e-02 -1.372783e-01 9.226276e-06 2.993330e-03
1.550690e+10 2.450802e-05 2.942363e-03 -1.146761e-01 -9.742303e-02 -1.146761e-01 -9.742303e-02 2.450802e-05 2.942363e-03
1.555689e+10 -6.674331e-06 2.899279e-03 -1.442255e-01 -4.007235e-02 -1.442255e-01 -4.007235e-02 -6.674331e-06 2.899279e-03
1.560688e+10 -6.170092e-05 2.896325e-03 -1.469553e-01 2.404949e-02 -1.469553e-01 2.404949e-02 -6.170092e-05 2.896325e-03
1.565687e+10 -1.017147e-04 2.937112e-03 -1.226420e-01 8.308493e-02 -1.226420e-01 8.308493e-02 -1.017147e-04 2.937112e-03
1.570686e+10 -9.906275e-05 2.994619e-03 -7.603565e-02 1.262344e-01 -7.603565e-02 1.262344e-01 -9.906275e-05 2.994619e-03
1.575685e+10 -5.640488e-05 3.030637e-03 -1.593495e-02 1.457307e-01 -1.593495e-02 1.457307e-01 -5.640488e-05 3.030637e-03
1.580684e+10 -4.294975e-06 3.022661e-03 4.647191e-02 1.382349e-01 4.647191e-02 1.382349e-01 -4.294975e-06 3.022661e-03
1.585683e+10 2.067635e-05 2.979321e-03 9.968885e-02 1.054050e-01 9.968885e-02 1.054050e-01 2.067635e-05 2.979321e-03
1.590682e+10 1.551635e-06 2.933778e-03 1.340283e-01 5.353862e-02 1.340283e-01 5.353862e-02 1.551635e-06 2.933778e-03
1.595681e+10 -4.751244e-05 2.920107e-03 1.433734e-01 -7.632460e-03 1.433734e-01 -7.632460e-03 -4.751244e-05 2.920107e-03
1.600680e+10 -9.170948e-05 2.949480e-03 1.262652e-01 -6.676685e-02 1.262652e-01 -6.676685e-02 -9.170948e-05 2.949480e-03
1.605679e+10 -1.002774e-04 3.002786e-03 8.612248e-02 -1.130150e-01 8.612248e-02 -1.130150e-01 -1.002774e-04 3.002786e-03
1.610678e+10 -6.790998e-05 3.044541e-03 3.056326e-02 -1.380087e-01 3.056326e-02 -1.380087e-01 -6.790998e-05 3.044541e-03
1.615677e+10 -1.799130e-05 3.047979e-03 -3.003948e-02 -1.373731e-01 -3.003948e-02 -1.373731e-01 -1.799130e-05 3.047979e-03
1.620676e+10 1.426949e-05 3.013581e-03 -8.449288e-02 -1.114904e-01 -8.449288e-02 -1.114904e-01 1.426949e-05 3.013581e-03
1.625675e+10 6.650038e-06 2.968236e-03 -1.228504e-01 -6.537982e-02 -1.228504e-01 -6.537982e-02 6.650038e-06 2.968236e-03
1.630674e+10 -3.480468e-05 2.945973e-03 -1.382272e-01 -7.727176e-03 -1.382272e-01 -7.727176e-03 -3.480468e-05 2.945973e-03
1.635673e+10 -8.052937e-05 2.964053e-03 -1.280343e-01 5.074989e-02 -1.280343e-01 5.074989e-02 -8.052937e-05 2.964053e-03
1.640672e+10 -9.852540e-05 3.011233e-03 -9.440971e-02 9.929298e-02 -9.440971e-02 9.929298e-02 -9.852540e-05 3.011233e-03
1.645671e+10 -7.675565e-05 3.056141e-03 -4.377688e-02 1.290810e-01 -4.377688e-02 1.290810e-01 -7.675565e-05 3.056141e-03
1.650670e+10 -3.118107e-05 3.069567e-03 1.438056e-02 1.348318e-01 1.438056e-02 1.348318e-01 -3.118107e-05 3.069567e-03
1.655669e+10 5.907766e-06 3.044823e-03 6.929365e-02 1.157364e-01 6.929365e-02 1.157364e-01 5.907766e-06 3.044823e-03
1.660668e+10 8.747741e-06 3.001994e-03 1.109011e-01 7.556180e-02 1.109011e-01 7.556180e-02 8.747741e-06 3.001994e-03
1.665667e+10 -2.402396e-05 2.973415e-03 1.316915e-01 2.191109e-02 1.316915e-01 2.191109e-02 -2.402396e-05 2.973415e-03
1.670666e+10 -6.887203e-05 2.980857e-03 1.280578e-01 -3.521389e-02 1.280578e-01 -3.521389e-02 -6.887203e-05 2.980857e-03
1.675665e+10 -9.426454e-05 3.020516e-03 1.009200e-01 -8.527588e-02 1.009200e-01 -8.527588e-02 -9.426454e-05 3.020516e-03
1.680664e+10 -8.284506e-05 3.066150e-03 5.550951e-02 -1.191447e-01 5.550951e-02 -1.191447e-01 -8.284506e-05 3.066150e-03
1.685663e+10 -4.329110e-05 3.087823e-03 3.626892e-04 -1.307611e-01 3.626892e-04 -1.307611e-01 -4.329110e-05 3.087823e-03
1.690662e+10 -3.768535e-06 3.072883e-03 -5.428219e-02 -1.182191e-01 -5.428219e-02 -1.182191e-01 -3.768535e-06 3.072883e-03
1.695661e+10 8.103682e-06 3.034474e-03 -9.838468e-02 -8.407342e-02 -9.838468e-02 -8.407342e-02 8.103682e-06 3.034474e-03
1.700660e+10 -1.546663e-05 3.001882e-03 -1.239459e-01 -3.482388e-02 -1.239459e-01 -3.482388e-02 -1.546663e-05 3.001882e-03
1.705659e+10 -5.737221e-05 2.999771e-03 -1.264580e-01 2.032010e-02 -1.264580e-01 2.032010e-02 -5.737221e-05 2.999771e-03
1.710658e+10 -8.801898e-05 3.031049e-03 -1.056965e-01 7.116045e-02 -1.056965e-01 7.116045e-02 -8.801898e-05 3.031049e-03
1.715657e+10 -8.622826e-05 3.075243e-03 -6.571791e-02 1.083953e-01 -6.571791e-02 1.083953e-01 -8.622826e-05 3.075243e-03
1.720656e+10 -5.387156e-05 3.103229e-03 -1.406948e-02 1.253196e-01 -1.406948e-02 1.253196e-01 -5.387156e-05 3.103229e-03
1.725655e+10 -1.413329e-05 3.097741e-03 3.963379e-02 1.190312e-01 3.963379e-02 1.190312e-01 -1.413329e-05 3.097741e-03
1.730654e+10 5.079663e-06 3.065204e-03 8.549816e-02 9.092509e-02 8.549816e-02 9.092509e-02 5.079663e-06 3.065204e-03
1.735653e+10 -9.283099e-06 3.030807e-03 1.151728e-01 4.639263e-02 1.151728e-01 4.639263e-02 -9.283099e-06 3.030807e-03
1.740652e+10 -4.657830e-05 3.020558e-03 1.233690e-01 -6.210460e-03 1.233690e-01 -6.210460e-03 -4.657830e-05 3.020558e-03
1.745651e+10 -8.034513e-05 3.043106e-03 1.088009e-01 -5.713084e-02 1.088009e-01 -5.713084e-02 -8.034513e-05 3.043106e-03
1.750650e+10 -8.708150e-05 3.084024e-03 7.438078e-02 -9.702482e-02 7.438078e-02 -9.702482e-02 -8.708150e-05 3.084024e-03
1.755649e+10 -6.260286e-05 3.116317e-03 2.664037e-02 -1.186718e-01 2.664037e-02 -1.186718e-01 -6.260286e-05 3.116317e-03
1.760648e+10 -2.460370e-05 3.119510e-03 -2.550696e-02 -1.182797e-01 -2.550696e-02 -1.182797e-01 -2.460370e-05 3.119510e-03
1.765647e+10 1.096955e-07 3.093825e-03 -7.242929e-02 -9.614710e-02 -7.242929e-02 -9.614710e-02 1.096955e-07 3.093825e-03
1.770646e+10 -5.488575e-06 3.059644e-03 -1.055542e-01 -5.656624e-02 -1.055542e-01 -5.656624e-02 -5.488575e-06 3.059644e-03
1.775645e+10 -3.693596e-05 3.042889e-03 -1.189338e-01 -6.992771e-03 -1.189338e-01 -6.992771e-03 -3.693596e-05 3.042889e-03
1.780644e+10 -7.180028e-05 3.056821e-03 -1.103113e-01 4.335723e-02 -1.103113e-01 4.335723e-02 -7.180028e-05 3.056821e-03
1.785643e+10 -8.568282e-05 3.093012e-03 -8.149756e-02 8.521957e-02 -8.149756e-02 8.521957e-02 -8.568282e-05 3.093012e-03
1.790642e+10 -6.929524e-05 3.127639e-03 -3.799701e-02 1.109854e-01 -3.799701e-02 1.109854e-01 -6.929524e-05 3.127639e-03
1.795641e+10 -3.466365e-05 3.138409e-03 1.204261e-02 1.160833e-01 1.204261e-02 1.160833e-01 -3.466365e-05 3.138409e-03
1.800640e+10 -6.330383e-06 3.120101e-03 5.935494e-02 9.978791e-02 5.935494e-02 9.978791e-02 -6.330383e-06 3.120101e-03
1.805639e+10 -3.979142e-06 3.087891e-03 9.527011e-02 6.531454e-02 9.527011e-02 6.531454e-02 -3.979142e-06 3.087891e-03
1.810638e+10 -2.877902e-05 3.066373e-03 1.133024e-01 1.918717e-02 1.133024e-01 1.918717e-02 -2.877902e-05 3.066373e-03
1.815637e+10 -6.291500e-05 3.072205e-03 1.103201e-01 -2.999470e-02 1.103201e-01 -2.999470e-02 -6.291500e-05 3.072205e-03
1.820636e+10 -8.238576e-05 3.102624e-03 8.708697e-02 -7.315820e-02 8.708697e-02 -7.315820e-02 -8.238576e-05 3.102624e-03
1.825635e+10 -7.388195e-05 3.137740e-03 4.808163e-02 -1.024298e-01 4.808163e-02 -1.024298e-01 -7.388195e-05 3.137740e-03
1.830634e+10 -4.388083e-05 3.154748e-03 6.364583e-04 -1.125706e-01 6.364583e-04 -1.125706e-01 -4.388083e-05 3.154748e-03
1.835633e+10 -1.375155e-05 3.143911e-03 -4.643974e-02 -1.019123e-01 -4.643974e-02 -1.019123e-01 -1.375155e-05 3.143911e-03
1.840632e+10 -4.551732e-06 3.115111e-03 -8.449620e-02 -7.262721e-02 -8.449620e-02 -7.262721e-02 -4.551732e-06 3.115111e-03
1.845631e+10 -2.232698e-05 3.090586e-03 -1.066290e-01 -3.029001e-02 -1.066290e-01 -3.029001e-02 -2.232698e-05 3.090586e-03
1.850630e+10 -5.417045e-05 3.089161e-03 -1.089322e-01 1.718240e-02 -1.089322e-01 1.718240e-02 -5.417045e-05 3.089161e-03
1.855629e+10 -7.759256e-05 3.113169e-03 -9.118539e-02 6.101010e-02 -9.118539e-02 6.101010e-02 -7.759256e-05 3.113169e-03
1.860628e+10 -7.640722e-05 3.147130e-03 -5.685633e-02 9.317304e-02 -5.685633e-02 9.317304e-02 -7.640722e-05 3.147130e-03
1.865627e+10 -5.191752e-05 3.168896e-03 -1.242575e-02 1.078777e-01 -1.242575e-02 1.078777e-01 -5.191752e-05 3.168896e-03
1.870626e+10 -2.167727e-05 3.165246e-03 3.383480e-02 1.025992e-01 3.383480e-02 1.025992e-01 -2.167727e-05 3.165246e-03
1.875625e+10 -6.926476e-06 3.140949e-03 7.340196e-02 7.851250e-02 7.340196e-02 7.851250e-02 -6.926476e-06 3.140949e-03
1.880624e+10 -1.768853e-05 3.115097e-03 9.907005e-02 4.023794e-02 9.907005e-02 4.023794e-02 -1.768853e-05 3.115097e-03
1.885623e+10 -4.598090e-05 3.107503e-03 1.062623e-01 -5.042913e-03 1.062623e-01 -5.042913e-03 -4.598090e-05 3.107503e-03
1.890622e+10 -7.172836e-05 3.124849e-03 9.384528e-02 -4.893391e-02 9.384528e-02 -4.893391e-02 -7.172836e-05 3.124849e-03
1.895621e+10 -7.701027e-05 3.156268e-03 6.430216e-02 -8.338022e-02 6.430216e-02 -8.338022e-02 -7.701027e-05 3.156268e-03
1.900620e+10 -5.853542e-05 3.181261e-03 2.323917e-02 -1.021456e-01 2.323917e-02 -1.021456e-01 -5.853542e-05 3.181261e-03
1.905619e+10 -2.966538e-05 3.184197e-03 -2.167686e-02 -1.019403e-01 -2.167686e-02 -1.019403e-01 -2.966538e-05 3.184197e-03
1.910618e+10 -1.077003e-05 3.165135e-03 -6.214905e-02 -8.299588e-02 -6.214905e-02 -8.299588e-02 -1.077003e-05 3.165135e-03
1.915617e+10 -1.487001e-05 3.139490e-03 -9.078221e-02 -4.898639e-02 -9.078221e-02 -4.898639e-02 -1.487001e-05 3.139490e-03
1.920616e+10 -3.868176e-05 3.126977e-03 -1.024332e-01 -6.318087e-03 -1.024332e-01 -6.318087e-03 -3.868176e-05 3.126977e-03
1.925615e+10 -6.521747e-05 3.137762e-03 -9.513331e-02 3.707635e-02 -9.513331e-02 3.707635e-02 -6.521747e-05 3.137762e-03
1.930614e+10 -7.590666e-05 3.165544e-03 -7.041803e-02 7.321170e-02 -7.041803e-02 7.321170e-02 -7.590666e-05 3.165544e-03
1.935613e+10 -6.359493e-05 3.192263e-03 -3.300874e-02 9.551873e-02 -3.300874e-02 9.551873e-02 -6.359493e-05 3.192263e-03
1.940612e+10 -3.732546e-05 3.200936e-03 1.008759e-02 1.000375e-01 1.008759e-02 1.000375e-01 -3.732546e-05 3.200936e-03
1.945611e+10 -1.571863e-05 3.187494e-03 5.088990e-02 8.611852e-02 5.088990e-02 8.611852e-02 -1.571863e-05 3.187494e-03
1.950610e+10 -1.378793e-05 3.163385e-03 8.192027e-02 5.650884e-02 8.192027e-02 5.650884e-02 -1.378793e-05 3.163385e-03
1.955609e+10 -3.252301e-05 3.147282e-03 9.757354e-02 1.681197e-02 9.757354e-02 1.681197e-02 -3.252301e-05 3.147282e-03
1.960608e+10 -5.846274e-05 3.151911e-03 9.512866e-02 -2.557119e-02 9.512866e-02 -2.557119e-02 -5.846274e-05 3.151911e-03
1.965607e+10 -7.336813e-05 3.175272e-03 7.521951e-02 -6.282132e-02 7.521951e-02 -6.282132e-02 -7.336813e-05 3.175272e-03
1.970606e+10 -6.704965e-05 3.202316e-03 4.168422e-02 -8.814245e-02 4.168422e-02 -8.814245e-02 -6.704965e-05 3.202316e-03
1.975605e+10 -4.433150e-05 3.215699e-03 8.269073e-04 -9.700088e-02 8.269073e-04 -9.700088e-02 -4.433150e-05 3.215699e-03
1.980604e+10 -2.139969e-05 3.207938e-03 -3.976640e-02 -8.793565e-02 -3.976640e-02 -8.793565e-02 -2.139969e-05 3.207938e-03
1.985603e+10 -1.428427e-05 3.186451e-03 -7.263543e-02 -6.279588e-02 -7.263543e-02 -6.279588e-02 -1.428427e-05 3.186451e-03
1.990602e+10 -2.766763e-05 3.168096e-03 -9.181597e-02 -2.636708e-02 -9.181597e-02 -2.636708e-02 -2.766763e-05 3.168096e-03
1.995601e+10 -5.182849e-05 3.167219e-03 -9.392107e-02 1.453853e-02 -9.392107e-02 1.453853e-02 -5.182849e-05 3.167219e-03
2.000600e+10 -6.970238e-05 3.185685e-03 -7.873747e-02 5.235505e-02 -7.873747e-02 5.235505e-02 -6.970238e-05 3.185685e-03
2.005599e+10 -6.893706e-05 3.211809e-03 -4.923252e-02 8.016144e-02 -4.923252e-02 8.016144e-02 -6.893706e-05 3.211809e-03
2.010598e+10 -5.042988e-05 3.228772e-03 -1.097629e-02 9.294739e-02 -1.097629e-02 9.294739e-02 -5.042988e-05 3.228772e-03
2.015597e+10 -2.745118e-05 3.226466e-03 2.890890e-02 8.851497e-02 2.890890e-02 8.851497e-02 -2.745118e-05 3.226466e-03
2.020596e+10 -1.614356e-05 3.208421e-03 6.307367e-02 6.785417e-02 6.307367e-02 6.785417e-02 -1.614356e-05 3.208421e-03
2.025595e+10 -2.419454e-05 3.189089e-03 8.529505e-02 3.492842e-02 8.529505e-02 3.492842e-02 -2.419454e-05 3.189089e-03
2.030594e+10 -4.562753e-05 3.183541e-03 9.160909e-02 -4.084272e-03 9.160909e-02 -4.084272e-03 -4.562753e-05 3.183541e-03
2.035593e+10 -6.523345e-05 3.196931e-03 8.101663e-02 -4.194965e-02 8.101663e-02 -4.194965e-02 -6.523345e-05 3.196931e-03
2.040592e+10 -6.936615e-05 3.221087e-03 5.563686e-02 -7.171787e-02 5.563686e-02 -7.171787e-02 -6.936615e-05 3.221087e-03
2.045591e+10 -5.544264e-05 3.240465e-03 2.028601e-02 -8.799836e-02 2.028601e-02 -8.799836e-02 -5.544264e-05 3.240465e-03
2.050590e+10 -3.353800e-05 3.243147e-03 -1.843543e-02 -8.793493e-02 -1.843543e-02 -8.793493e-02 -3.353800e-05 3.243147e-03
2.055589e+10 -1.911063e-05 3.229094e-03 -5.337431e-02 -7.170522e-02 -5.337431e-02 -7.170522e-02 -1.911063e-05 3.229094e-03
2.060588e+10 -2.210525e-05 3.209947e-03 -7.814555e-02 -4.245720e-02 -7.814555e-02 -4.245720e-02 -2.210525e-05 3.209947e-03
2.065587e+10 -4.011229e-05 3.200682e-03 -8.829820e-02 -5.700261e-03 -8.829820e-02 -5.700261e-03 -4.011229e-05 3.200682e-03
2.070586e+10 -6.028388e-05 3.209083e-03 -8.211408e-02 3.173165e-02 -8.211408e-02 3.173165e-02 -6.028388e-05 3.209083e-03
2.075585e+10 -6.850321e-05 3.230446e-03 -6.089591e-02 6.294985e-02 -6.089591e-02 6.294985e-02 -6.850321e-05 3.230446e-03
2.080584e+10 -5.926678e-05 3.251099e-03 -2.869716e-02 8.227792e-02 -2.869716e-02 8.227792e-02 -5.926678e-05 3.251099e-03
2.085583e+10 -3.936504e-05 3.258117e-03 8.451030e-03 8.628298e-02 8.451030e-03 8.628298e-02 -3.936504e-05 3.258117e-03
2.090582e+10 -2.290801e-05 3.248338e-03 4.366875e-02 7.438411e-02 4.366875e-02 7.438411e-02 -2.290801e-05 3.248338e-03
2.095581e+10 -2.133351e-05 3.230382e-03 7.050078e-02 4.893020e-02 7.050078e-02 4.893020e-02 -2.133351e-05 3.230382e-03
2.100580e+10 -3.547013e-05 3.218414e-03 8.409906e-02 1.473840e-02 8.409906e-02 1.473840e-02 -3.547013e-05 3.218414e-03
2.105579e+10 -5.515917e-05 3.222141e-03 8.209768e-02 -2.181653e-02 8.209768e-02 -2.181653e-02 -5.515917e-05 3.222141e-03
2.110578e+10 -6.655647e-05 3.240123e-03 6.502271e-02 -5.398998e-02 6.502271e-02 -5.398998e-02 -6.655647e-05 3.240123e-03
2.115577e+10 -6.186991e-05 3.260988e-03 3.616612e-02 -7.591124e-02 3.616612e-02 -7.591124e-02 -6.186991e-05 3.260988e-03
2.120576e+10 -4.468651e-05 3.271558e-03 9.525996e-04 -8.365391e-02 9.525996e-04 -8.365391e-02 -4.468651e-05 3.271558e-03
2.125575e+10 -2.725235e-05 3.266091e-03 -3.407940e-02 -7.593811e-02 -3.407940e-02 -7.593811e-02 -2.725235e-05 3.266091e-03
2.130574e+10 -2.175700e-05 3.250146e-03 -6.249100e-02 -5.433895e-02 -6.249100e-02 -5.433895e-02 -2.175700e-05 3.250146e-03
2.135573e+10 -3.182226e-05 3.236489e-03 -7.912574e-02 -2.296809e-02 -7.912574e-02 -2.296809e-02 -3.182226e-05 3.236489e-03
2.140572e+10 -5.013495e-05 3.236043e-03 -8.104452e-02 1.230796e-02 -8.104452e-02 1.230796e-02 -5.013495e-05 3.236043e-03
2.145571e+10 -6.376075e-05 3.250292e-03 -6.804353e-02 4.496410e-02 -6.804353e-02 4.496410e-02 -6.376075e-05 3.250292e-03
2.150570e+10 -6.328296e-05 3.270427e-03 -4.266403e-02 6.902294e-02 -4.266403e-02 6.902294e-02 -6.328296e-05 3.270427e-03
2.155569e+10 -4.931187e-05 3.283688e-03 -9.697347e-03 8.014818e-02 -9.697347e-03 8.014818e-02 -4.931187e-05 3.283688e-03
2.160568e+10 -3.186892e-05 3.282354e-03 2.471873e-02 7.642528e-02 2.471873e-02 7.642528e-02 -3.186892e-05 3.282354e-03
2.165567e+10 -2.321039e-05 3.269036e-03 5.424205e-02 5.868889e-02 5.424205e-02 5.868889e-02 -2.321039e-05 3.269036e-03
2.170566e+10 -2.922621e-05 3.254660e-03 7.349413e-02 3.034164e-02 7.349413e-02 3.034164e-02 -2.922621e-05 3.254660e-03
2.175565e+10 -4.544733e-05 3.250678e-03 7.903930e-02 -3.297437e-03 7.903930e-02 -3.297437e-03 -4.544733e-05 3.250678e-03
2.180564e+10 -6.036265e-05 3.261065e-03 6.999664e-02 -3.599019e-02 6.999664e-02 -3.599019e-02 -6.036265e-05 3.261065e-03
2.185563e+10 -6.359075e-05 3.279678e-03 4.817614e-02 -6.173551e-02 4.817614e-02 -6.173551e-02 -6.359075e-05 3.279678e-03
2.190562e+10 -5.310811e-05 3.294744e-03 1.771871e-02 -7.587024e-02 1.771871e-02 -7.587024e-02 -5.310811e-05 3.294744e-03
2.195561e+10 -3.650401e-05 3.297184e-03 -1.568865e-02 -7.591298e-02 -1.568865e-02 -7.591298e-02 -3.650401e-05 3.297184e-03
2.200560e+10 -2.549877e-05 3.286903e-03 -4.587406e-02 -6.199825e-02 -4.587406e-02 -6.199825e-02 -2.549877e-05 3.286903e-03
2.205559e+10 -2.768094e-05 3.272687e-03 -6.732034e-02 -3.682534e-02 -6.732034e-02 -3.682534e-02 -2.768094e-05 3.272687e-03
2.210558e+10 -4.128634e-05 3.265898e-03 -7.617277e-02 -5.136100e-03 -7.617277e-02 -5.136100e-03 -4.128634e-05 3.265898e-03
2.215557e+10 -5.660705e-05 3.272493e-03 -7.093099e-02 2.717745e-02 -7.093099e-02 2.717745e-02 -5.660705e-05 3.272493e-03
2.220556e+10 -6.292112e-05 3.288965e-03 -5.270102e-02 5.416801e-02 -5.270102e-02 5.416801e-02 -6.292112e-05 3.288965e-03
2.225555e+10 -5.599910e-05 3.304970e-03 -2.496565e-02 7.092699e-02 -2.496565e-02 7.092699e-02 -5.599910e-05 3.304970e-03
2.230554e+10 -4.093463e-05 3.310684e-03 7.079902e-03 7.447642e-02 7.079902e-03 7.447642e-02 -4.093463e-05 3.310684e-03
2.235553e+10 -2.841086e-05 3.303649e-03 3.750039e-02 6.429703e-02 3.750039e-02 6.429703e-02 -2.841086e-05 3.303649e-03
2.240552e+10 -2.713432e-05 3.290353e-03 6.071923e-02 4.239890e-02 6.071923e-02 4.239890e-02 -2.713432e-05 3.290353e-03
2.245551e+10 -3.779245e-05 3.281528e-03 7.254019e-02 1.292634e-02 7.254019e-02 1.292634e-02 -3.779245e-05 3.281528e-03
2.250550e+10 -5.272541e-05 3.284577e-03 7.090488e-02 -1.862556e-02 7.090488e-02 -1.862556e-02 -5.272541e-05 3.284577e-03
2.255549e+10 -6.143328e-05 3.298465e-03 5.624968e-02 -4.643482e-02 5.624968e-02 -4.643482e-02 -6.143328e-05 3.298465e-03
2.260548e+10 -5.796211e-05 3.314606e-03 3.140032e-02 -6.542629e-02 3.140032e-02 -6.542629e-02 -5.796211e-05 3.314606e-03
2.265547e+10 -4.497552e-05 3.322995e-03 1.028282e-03 -7.219717e-02 1.028282e-03 -7.219717e-02 -4.497552e-05 3.322995e-03
2.270546e+10 -3.173141e-05 3.319229e-03 -2.922667e-02 -6.562579e-02 -2.922667e-02 -6.562579e-02 -3.173141e-05 3.319229e-03
2.275545e+10 -2.749204e-05 3.307471e-03 -5.380314e-02 -4.705480e-02 -5.380314e-02 -4.705480e-02 -2.749204e-05 3.307471e-03
2.280544e+10 -3.505593e-05 3.297381e-03 -6.823982e-02 -2.001955e-02 -6.823982e-02 -2.001955e-02 -3.505593e-05 3.297381e-03
2.285543e+10 -4.892617e-05 3.297268e-03 -6.998460e-02 1.042409e-02 -6.998460e-02 1.042409e-02 -4.892617e-05 3.297268e-03
2.290542e+10 -5.930617e-05 3.308311e-03 -5.884454e-02 3.864449e-02 -5.884454e-02 3.864449e-02 -5.930617e-05 3.308311e-03
2.295541e+10 -5.902227e-05 3.323874e-03 -3.699761e-02 5.947555e-02 -3.699761e-02 5.947555e-02 -5.902227e-05 3.323874e-03
2.300540e+10 -4.848348e-05 3.334284e-03 -8.568352e-03 6.916173e-02 -8.568352e-03 6.916173e-02 -4.848348e-05 3.334284e-03
2.305539e+10 -3.525216e-05 3.333647e-03 2.115003e-02 6.603439e-02 2.115003e-02 6.603439e-02 -3.525216e-05 3.333647e-03
2.310538e+10 -2.862749e-05 3.323890e-03 4.668061e-02 5.079750e-02 4.668061e-02 5.079750e-02 -2.862749e-05 3.323890e-03
2.315537e+10 -3.311881e-05 3.313269e-03 6.337155e-02 2.637441e-02 6.337155e-02 2.637441e-02 -3.311881e-05 3.313269e-03
2.320536e+10 -4.538751e-05 3.310481e-03 6.824306e-02 -2.652072e-03 6.824306e-02 -2.652072e-03 -4.538751e-05 3.310481e-03
2.325535e+10 -5.672722e-05 3.318586e-03 6.051842e-02 -3.089886e-02 6.051842e-02 -3.089886e-02 -5.672722e-05 3.318586e-03
2.330534e+10 -5.924532e-05 3.332974e-03 4.174461e-02 -5.318042e-02 4.174461e-02 -5.318042e-02 -5.924532e-05 3.332974e-03
2.335533e+10 -5.135905e-05 3.344731e-03 1.548450e-02 -6.546009e-02 1.548450e-02 -6.546009e-02 -5.135905e-05 3.344731e-03
2.340532e+10 -3.878110e-05 3.346946e-03 -1.335848e-02 -6.558078e-02 -1.335848e-02 -6.558078e-02 -3.878110e-05 3.346946e-03
2.345531e+10 -3.039205e-05 3.339497e-03 -3.945530e-02 -5.364256e-02 -3.945530e-02 -5.364256e-02 -3.039205e-05 3.339497e-03
2.350530e+10 -3.197886e-05 3.329011e-03 -5.803547e-02 -3.196165e-02 -5.803547e-02 -3.196165e-02 -3.197886e-05 3.329011e-03
2.355529e+10 -4.225248e-05 3.324104e-03 -6.575842e-02 -4.622227e-03 -6.575842e-02 -4.622227e-03 -4.225248e-05 3.324104e-03
2.360528e+10 -5.388218e-05 3.329329e-03 -6.131337e-02 2.329223e-02 -6.131337e-02 2.329223e-02 -5.388218e-05 3.329329e-03
2.365527e+10 -5.872930e-05 3.342075e-03 -4.563989e-02 4.664361e-02 -4.563989e-02 4.664361e-02 -5.872930e-05 3.342075e-03
2.370526e+10 -5.354584e-05 3.354523e-03 -2.173252e-02 6.118442e-02 -2.173252e-02 6.118442e-02 -5.354584e-05 3.354523e-03
2.375525e+10 -4.214980e-05 3.359208e-03 5.930410e-03 6.432971e-02 5.930410e-03 6.432971e-02 -4.214980e-05 3.359208e-03
2.380524e+10 -3.262504e-05 3.354222e-03 3.222507e-02 5.561567e-02 3.222507e-02 5.561567e-02 -3.262504e-05 3.354222e-03
2.385523e+10 -3.159528e-05 3.344444e-03 5.233068e-02 3.676360e-02 5.233068e-02 3.676360e-02 -3.159528e-05 3.344444e-03
2.390522e+10 -3.962643e-05 3.338002e-03 6.261278e-02 1.134145e-02 6.261278e-02 1.134145e-02 -3.962643e-05 3.338002e-03
2.395521e+10 -5.094634e-05 3.340538e-03 6.127956e-02 -1.591067e-02 6.127956e-02 -1.591067e-02 -5.094634e-05 3.340538e-03
2.400520e+10 -5.759578e-05 3.351312e-03 4.869278e-02 -3.996383e-02 4.869278e-02 -3.996383e-02 -5.759578e-05 3.351312e-03
2.405519e+10 -5.502791e-05 3.363842e-03 2.727961e-02 -5.642772e-02 2.727961e-02 -5.642772e-02 -5.502791e-05 3.363842e-03
2.410518e+10 -4.521864e-05 3.370540e-03 1.065675e-03 -6.235145e-02 1.065675e-03 -6.235145e-02 -4.521864e-05 3.370540e-03
2.415517e+10 -3.516308e-05 3.368030e-03 -2.508113e-02 -5.675168e-02 -2.508113e-02 -5.675168e-02 -3.516308e-05 3.368030e-03
2.420516e+10 -3.189552e-05 3.359427e-03 -4.635410e-02 -4.077361e-02 -4.635410e-02 -4.077361e-02 -3.189552e-05 3.359427e-03
2.425515e+10 -3.757667e-05 3.352036e-03 -5.889088e-02 -1.745911e-02 -5.889088e-02 -1.745911e-02 -3.757667e-05 3.352036e-03
2.430514e+10 -4.807726e-05 3.352177e-03 -6.047408e-02 8.831587e-03 -6.047408e-02 8.831587e-03 -4.807726e-05 3.352177e-03
2.435513e+10 -5.598092e-05 3.360783e-03 -5.092249e-02 3.323480e-02 -5.092249e-02 3.323480e-02 -5.598092e-05 3.360783e-03
2.440512e+10 -5.582544e-05 3.372857e-03 -3.210395e-02 5.128266e-02 -3.210395e-02 5.128266e-02 -5.582544e-05 3.372857e-03
2.445511e+10 -4.787999e-05 3.381071e-03 -7.571364e-03 5.972058e-02 -7.571364e-03 5.972058e-02 -4.787999e-05 3.381071e-03
2.450510e+10 -3.784836e-05 3.380927e-03 1.810736e-02 5.709351e-02 1.810736e-02 5.709351e-02 -3.784836e-05 3.380927e-03
2.455509e+10 -3.278283e-05 3.373846e-03 4.019941e-02 4.399538e-02 4.019941e-02 4.399538e-02 -3.278283e-05 3.373846e-03
2.460508e+10 -3.613397e-05 3.366063e-03 5.467885e-02 2.293940e-02 5.467885e-02 2.293940e-02 -3.613397e-05 3.366063e-03
2.465507e+10 -4.540939e-05 3.364181e-03 5.895975e-02 -2.123292e-03 5.895975e-02 -2.123292e-03 -4.540939e-05 3.364181e-03
2.470506e+10 -5.402708e-05 3.370552e-03 5.235722e-02 -2.654447e-02 5.235722e-02 -2.654447e-02 -5.402708e-05 3.370552e-03
2.475505e+10 -5.598921e-05 3.381720e-03 3.619425e-02 -4.584042e-02 3.619425e-02 -4.584042e-02 -5.598921e-05 3.381720e-03
2.480504e+10 -5.005940e-05 3.390938e-03 1.353837e-02 -5.651471e-02 1.353837e-02 -5.651471e-02 -5.005940e-05 3.390938e-03
2.485503e+10 -4.053564e-05 3.392947e-03 -1.137982e-02 -5.669107e-02 -1.137982e-02 -5.669107e-02 -4.053564e-05 3.392947e-03
2.490502e+10 -3.414400e-05 3.387619e-03 -3.395614e-02 -4.644222e-02 -3.395614e-02 -4.644222e-02 -3.414400e-05 3.387619e-03
2.495501e+10 -3.529562e-05 3.379946e-03 -5.006309e-02 -2.775693e-02 -5.006309e-02 -2.775693e-02 -3.529562e-05 3.379946e-03
2.500500e+10 -4.305041e-05 3.376463e-03 -5.680398e-02 -4.155198e-03 -5.680398e-02 -4.155198e-03 -4.305041e-05 3.376463e-03
2.505499e+10 -5.187510e-05 3.380648e-03 -5.303316e-02 1.997427e-02 -5.303316e-02 1.997427e-02 -5.187510e-05 3.380648e-03
2.510498e+10 -5.559432e-05 3.390557e-03 -3.954918e-02 4.018969e-02 -3.954918e-02 4.018969e-02 -5.559432e-05 3.390557e-03
2.515497e+10 -5.171509e-05 3.400283e-03 -1.892843e-02 5.281334e-02 -1.892843e-02 5.281334e-02 -5.171509e-05 3.400283e-03
2.520496e+10 -4.309774e-05 3.404153e-03 4.966266e-03 5.560017e-02 4.966266e-03 5.560017e-02 -4.309774e-05 3.404153e-03
2.525495e+10 -3.585690e-05 3.400691e-03 2.770879e-02 4.813620e-02 2.770879e-02 4.813620e-02 -3.585690e-05 3.400691e-03
2.530494e+10 -3.502984e-05 3.393563e-03 4.512913e-02 3.189633e-02 4.512913e-02 3.189633e-02 -3.502984e-05 3.393563e-03
2.535493e+10 -4.107939e-05 3.388924e-03 5.407757e-02 9.954265e-03 5.407757e-02 9.954265e-03 -4.107939e-05 3.388924e-03
2.540492e+10 -4.965765e-05 3.391069e-03 5.299354e-02 -1.359861e-02 5.299354e-02 -1.359861e-02 -4.965765e-05 3.391069e-03
2.545491e+10 -5.473344e-05 3.399472e-03 4.217667e-02 -3.441568e-02 4.217667e-02 -3.441568e-02 -5.473344e-05 3.399472e-03
2.550490e+10 -5.283587e-05 3.409244e-03 2.371311e-02 -4.869676e-02 2.371311e-02 -4.869676e-02 -5.283587e-05 3.409244e-03
2.555489e+10 -4.542943e-05 3.414629e-03 1.074083e-03 -5.388143e-02 1.074083e-03 -5.388143e-02 -4.542943e-05 3.414629e-03
2.560488e+10 -3.779762e-05 3.413040e-03 -2.153615e-02 -4.910732e-02 -2.153615e-02 -4.910732e-02 -3.779762e-05 3.413040e-03
2.565487e+10 -3.528093e-05 3.406808e-03 -3.996066e-02 -3.535177e-02 -3.996066e-02 -3.535177e-02 -3.528093e-05 3.406808e-03
2.570486e+10 -3.954653e-05 3.401456e-03 -5.085366e-02 -1.523367e-02 -5.085366e-02 -1.523367e-02 -3.954653e-05 3.401456e-03
2.575485e+10 -4.749382e-05 3.401787e-03 -5.228756e-02 7.484380e-03 -5.228756e-02 7.484380e-03 -4.749382e-05 3.401787e-03
2.580484e+10 -5.351015e-05 3.408539e-03 -4.409323e-02 2.859936e-02 -4.409323e-02 2.859936e-02 -5.351015e-05 3.408539e-03
2.585483e+10 -5.343781e-05 3.417951e-03 -2.787347e-02 4.424498e-02 -2.787347e-02 4.424498e-02 -5.343781e-05 3.417951e-03
2.590482e+10 -4.744978e-05 3.424471e-03 -6.690706e-03 5.159918e-02 -6.690706e-03 5.159918e-02 -4.744978e-05 3.424471e-03
2.595481e+10 -3.984662e-05 3.424671e-03 1.551073e-02 4.939257e-02 1.551073e-02 4.939257e-02 -3.984662e-05 3.424671e-03
2.600480e+10 -3.597503e-05 3.419596e-03 3.463860e-02 3.812634e-02 3.463860e-02 3.812634e-02 -3.597503e-05 3.419596e-03
2.605479e+10 -3.847438e-05 3.413953e-03 4.720661e-02 1.996241e-02 4.720661e-02 1.996241e-02 -3.847438e-05 3.413953e-03
2.610478e+10 -4.548506e-05 3.412753e-03 5.096944e-02 -1.690635e-03 5.096944e-02 -1.690635e-03 -4.548506e-05 3.412753e-03
2.615477e+10 -5.203249e-05 3.417806e-03 4.532311e-02 -2.281672e-02 4.532311e-02 -2.281672e-02 -5.203249e-05 3.417806e-03
2.620476e+10 -5.356008e-05 3.426518e-03 3.139969e-02 -3.953674e-02 3.139969e-02 -3.953674e-02 -5.356008e-05 3.426518e-03
2.625475e+10 -4.910308e-05 3.433786e-03 1.184182e-02 -4.882042e-02 1.184182e-02 -4.882042e-02 -4.910308e-05 3.433786e-03
2.630474e+10 -4.189408e-05 3.435610e-03 -9.698258e-03 -4.903498e-02 -9.698258e-03 -4.903498e-02 -4.189408e-05 3.435610e-03
2.635473e+10 -3.702596e-05 3.431864e-03 -2.924027e-02 -4.023146e-02 -2.924027e-02 -4.023146e-02 -3.702596e-05 3.431864e-03
2.640472e+10 -3.786020e-05 3.426311e-03 -4.321103e-02 -2.411848e-02 -4.321103e-02 -2.411848e-02 -3.786020e-05 3.426311e-03
2.645471e+10 -4.371242e-05 3.423901e-03 -4.909734e-02 -3.731583e-03 -4.909734e-02 -3.731583e-03 -4.371242e-05 3.423901e-03
2.650470e+10 -5.040722e-05 3.427294e-03 -4.589753e-02 1.713815e-02 -4.589753e-02 1.713815e-02 -5.040722e-05 3.427294e-03
2.655469e+10 -5.326010e-05 3.435041e-03 -3.429053e-02 3.464865e-02 -3.429053e-02 3.464865e-02 -5.326010e-05 3.435041e-03
2.660468e+10 -5.035833e-05 3.442682e-03 -1.649431e-02 4.561380e-02 -1.649431e-02 4.561380e-02 -5.035833e-05 3.442682e-03
2.665467e+10 -4.384396e-05 3.445908e-03 4.157313e-03 4.808273e-02 4.157313e-03 4.808273e-02 -4.384396e-05 3.445908e-03
2.670466e+10 -3.834099e-05 3.443575e-03 2.383871e-02 4.168615e-02 2.383871e-02 4.168615e-02 -3.834099e-05 3.443575e-03
2.675465e+10 -3.767928e-05 3.438439e-03 3.894079e-02 2.768854e-02 3.894079e-02 2.768854e-02 -3.767928e-05 3.438439e-03
2.680464e+10 -4.223527e-05 3.435157e-03 4.673240e-02 8.739350e-03 4.673240e-02 8.739350e-03 -4.223527e-05 3.435157e-03
2.685463e+10 -4.873473e-05 3.437002e-03 4.585376e-02 -1.162795e-02 4.585376e-02 -1.162795e-02 -4.873473e-05 3.437002e-03
2.690462e+10 -5.260848e-05 3.443600e-03 3.655279e-02 -2.965434e-02 3.655279e-02 -2.965434e-02 -5.260848e-05 3.443600e-03
2.695461e+10 -5.120767e-05 3.451263e-03 2.062354e-02 -4.204867e-02 2.062354e-02 -4.204867e-02 -5.120767e-05 3.451263e-03
2.700460e+10 -4.561694e-05 3.455627e-03 1.060887e-03 -4.658812e-02 1.060887e-03 -4.658812e-02 -4.561694e-05 3.455627e-03
2.705459e+10 -3.982612e-05 3.454711e-03 -1.850203e-02 -4.251624e-02 -1.850203e-02 -4.251624e-02 -3.982612e-05 3.454711e-03
2.710458e+10 -3.788893e-05 3.450256e-03 -3.446821e-02 -3.066747e-02 -3.446821e-02 -3.066747e-02 -3.788893e-05 3.450256e-03
2.715457e+10 -4.109108e-05 3.446439e-03 -4.393779e-02 -1.329784e-02 -4.393779e-02 -1.329784e-02 -4.109108e-05 3.446439e-03
2.720456e+10 -4.710502e-05 3.446909e-03 -4.523428e-02 6.343951e-03 -4.523428e-02 6.343951e-03 -4.710502e-05 3.446909e-03
2.725455e+10 -5.168397e-05 3.452249e-03 -3.820066e-02 2.462379e-02 -3.820066e-02 2.462379e-02 -5.168397e-05 3.452249e-03
2.730454e+10 -5.166384e-05 3.459628e-03 -2.421309e-02 3.819415e-02 -2.421309e-02 3.819415e-02 -5.166384e-05 3.459628e-03
2.735453e+10 -4.715218e-05 3.464842e-03 -5.912641e-03 4.460672e-02 -5.912641e-03 4.460672e-02 -4.715218e-05 3.464842e-03
2.740452e+10 -4.139087e-05 3.465276e-03 1.329289e-02 4.275365e-02 1.329289e-02 4.275365e-02 -4.139087e-05 3.465276e-03
2.745451e+10 -3.843281e-05 3.461700e-03 2.986320e-02 3.305790e-02 2.986320e-02 3.305790e-02 -3.843281e-05 3.461700e-03
2.750450e+10 -4.029637e-05 3.457667e-03 4.077774e-02 1.738022e-02 4.077774e-02 1.738022e-02 -4.029637e-05 3.457667e-03
2.755449e+10 -4.559463e-05 3.456978e-03 4.408590e-02 -1.337241e-03 4.408590e-02 -1.337241e-03 -4.559463e-05 3.456978e-03
2.760448e+10 -5.056855e-05 3.461025e-03 3.925507e-02 -1.962269e-02 3.925507e-02 -1.962269e-02 -5.056855e-05 3.461025e-03
2.765447e+10 -5.175700e-05 3.467864e-03 2.725442e-02 -3.411828e-02 2.725442e-02 -3.411828e-02 -5.175700e-05 3.467864e-03
2.770446e+10 -4.840796e-05 3.473634e-03 1.036180e-02 -4.219641e-02 1.036180e-02 -4.219641e-02 -4.840796e-05 3.473634e-03
2.775445e+10 -4.295219e-05 3.475293e-03 -8.268137e-03 -4.243555e-02 -8.268137e-03 -4.243555e-02 -4.295219e-05 3.475293e-03
2.780444e+10 -3.924536e-05 3.472725e-03 -2.519263e-02 -3.486964e-02 -2.519263e-02 -3.486964e-02 -3.924536e-05 3.472725e-03
2.785443e+10 -3.984859e-05 3.468763e-03 -3.731672e-02 -2.096741e-02 -3.731672e-02 -2.096741e-02 -3.984859e-05 3.468763e-03
2.790442e+10 -4.426459e-05 3.467159e-03 -4.245886e-02 -3.348033e-03 -4.245886e-02 -3.348033e-03 -4.426459e-05 3.467159e-03
2.795441e+10 -4.934309e-05 3.469945e-03 -3.974294e-02 1.471189e-02 -3.974294e-02 1.471189e-02 -4.934309e-05 3.469945e-03
2.800440e+10 -5.153101e-05 3.476044e-03 -2.974642e-02 2.988729e-02 -2.974642e-02 2.988729e-02 -5.153101e-05 3.476044e-03
2.805439e+10 -4.936127e-05 3.482086e-03 -1.437969e-02 3.941652e-02 -1.437969e-02 3.941652e-02 -4.936127e-05 3.482086e-03
2.810438e+10 -4.443755e-05 3.484800e-03 3.478433e-03 4.160353e-02 3.478433e-03 4.160353e-02 -4.443755e-05 3.484800e-03
2.815437e+10 -4.025617e-05 3.483301e-03 2.051961e-02 3.611910e-02 2.051961e-02 3.611910e-02 -4.025617e-05 3.483301e-03
2.820436e+10 -3.972858e-05 3.479658e-03 3.361859e-02 2.404785e-02 3.361859e-02 2.404785e-02 -3.972858e-05 3.479658e-03
2.825435e+10 -4.315949e-05 3.477396e-03 4.040599e-02 7.674735e-03 4.040599e-02 7.674735e-03 -4.315949e-05 3.477396e-03
2.830434e+10 -4.808357e-05 3.479008e-03 3.969647e-02 -9.946996e-03 3.969647e-02 -9.946996e-03 -4.808357e-05 3.479008e-03
2.835433e+10 -5.103968e-05 3.484229e-03 3.169493e-02 -2.556482e-02 3.169493e-02 -2.556482e-02 -5.103968e-05 3.484229e-03
2.840432e+10 -5.000661e-05 3.490278e-03 1.794499e-02 -3.632697e-02 1.794499e-02 -3.632697e-02 -5.000661e-05 3.490278e-03
2.845431e+10 -4.578719e-05 3.493846e-03 1.031919e-03 -4.030279e-02 1.031919e-03 -4.030279e-02 -4.578719e-05 3.493846e-03
2.850430e+10 -4.139398e-05 3.493417e-03 -1.590305e-02 -3.682858e-02 -1.590305e-02 -3.682858e-02 -4.139398e-05 3.493417e-03
2.855429e+10 -3.990365e-05 3.490292e-03 -2.974586e-02 -2.661707e-02 -2.974586e-02 -2.661707e-02 -3.990365e-05 3.490292e-03
2.860428e+10 -4.230728e-05 3.487628e-03 -3.798188e-02 -1.161273e-02 -3.798188e-02 -1.161273e-02 -4.230728e-05 3.487628e-03
2.865427e+10 -4.685801e-05 3.488197e-03 -3.915236e-02 5.378039e-03 -3.915236e-02 5.378039e-03 -4.685801e-05 3.488197e-03
2.870426e+10 -5.034281e-05 3.492459e-03 -3.311218e-02 2.121140e-02 -3.311218e-02 2.121140e-02 -5.034281e-05 3.492459e-03
2.875425e+10 -5.035403e-05 3.498284e-03 -2.104347e-02 3.298753e-02 -2.104347e-02 3.298753e-02 -5.035403e-05 3.498284e-03
2.880424e+10 -4.695534e-05 3.502488e-03 -5.225110e-03 3.858136e-02 -5.225110e-03 3.858136e-02 -4.695534e-05 3.502488e-03
2.885423e+10 -4.259030e-05 3.503078e-03 1.139716e-02 3.702565e-02 1.139716e-02 3.702565e-02 -4.259030e-05 3.503078e-03
2.890422e+10 -4.033082e-05 3.500619e-03 2.575900e-02 2.867733e-02 2.575900e-02 2.867733e-02 -4.033082e-05 3.500619e-03
2.895421e+10 -4.172012e-05 3.497794e-03 3.524206e-02 1.513878e-02 3.524206e-02 1.513878e-02 -4.172012e-05 3.497794e-03
2.900420e+10 -4.572414e-05 3.497485e-03 3.815105e-02 -1.049202e-03 3.815105e-02 -1.049202e-03 -4.572414e-05 3.497485e-03
2.905419e+10 -4.950261e-05 3.500764e-03 3.401624e-02 -1.688382e-02 3.401624e-02 -1.688382e-02 -4.950261e-05 3.500764e-03
2.910418e+10 -5.042671e-05 3.506171e-03 2.366771e-02 -2.945703e-02 2.366771e-02 -2.945703e-02 -5.042671e-05 3.506171e-03
2.915417e+10 -4.791075e-05 3.510788e-03 9.069855e-03 -3.648927e-02 9.069855e-03 -3.648927e-02 -4.791075e-05 3.510788e-03
2.920416e+10 -4.378233e-05 3.512301e-03 -7.051082e-03 -3.674242e-02 -7.051082e-03 -3.674242e-02 -4.378233e-05 3.512301e-03
2.925415e+10 -4.096027e-05 3.510605e-03 -2.171580e-02 -3.023708e-02 -2.171580e-02 -3.023708e-02 -4.096027e-05 3.510605e-03
2.930414e+10 -4.139569e-05 3.507835e-03 -3.224229e-02 -1.823637e-02 -3.224229e-02 -1.823637e-02 -4.139569e-05 3.507835e-03
2.935413e+10 -4.472794e-05 3.506835e-03 -3.673599e-02 -3.001317e-03 -3.673599e-02 -3.001317e-03 -4.472794e-05 3.506835e-03
2.940412e+10 -4.858035e-05 3.509154e-03 -3.443038e-02 1.263472e-02 -3.443038e-02 1.263472e-02 -4.858035e-05 3.509154e-03
2.945411e+10 -5.025818e-05 3.513995e-03 -2.581674e-02 2.579272e-02 -2.581674e-02 2.579272e-02 -5.025818e-05 3.513995e-03
2.950410e+10 -4.863635e-05 3.518809e-03 -1.254134e-02 3.407782e-02 -1.254134e-02 3.407782e-02 -4.863635e-05 3.518809e-03
2.955409e+10 -4.491531e-05 3.521115e-03 2.908660e-03 3.601485e-02 2.908660e-03 3.601485e-02 -4.491531e-05 3.521115e-03
2.960408e+10 -4.173853e-05 3.520228e-03 1.767089e-02 3.131048e-02 1.767089e-02 3.131048e-02 -4.173853e-05 3.520228e-03
2.965407e+10 -4.131919e-05 3.517701e-03 2.903778e-02 2.089547e-02 2.903778e-02 2.089547e-02 -4.131919e-05 3.517701e-03
2.970406e+10 -4.390289e-05 3.516203e-03 3.495285e-02 6.741383e-03 3.495285e-02 6.741383e-03 -4.390289e-05 3.516203e-03
2.975405e+10 -4.763353e-05 3.517631e-03 3.438243e-02 -8.512209e-03 3.438243e-02 -8.512209e-03 -4.763353e-05 3.517631e-03
2.980404e+10 -4.988936e-05 3.521800e-03 2.749558e-02 -2.204969e-02 2.749558e-02 -2.204969e-02 -4.988936e-05 3.521800e-03
2.985403e+10 -4.912828e-05 3.526612e-03 1.562111e-02 -3.139884e-02 1.562111e-02 -3.139884e-02 -4.912828e-05 3.526612e-03
2.990402e+10 -4.594417e-05 3.529559e-03 9.917755e-04 -3.488203e-02 9.917755e-04 -3.488203e-02 -4.594417e-05 3.529559e-03
2.995401e+10 -4.261160e-05 3.529480e-03 -1.367521e-02 -3.191682e-02 -1.367521e-02 -3.191682e-02 -4.261160e-05 3.529480e-03
3.000400e+10 -4.146558e-05 3.527347e-03 -2.568260e-02 -2.311222e-02 -2.568260e-02 -2.311222e-02 -4.146558e-05 3.527347e-03
3.005399e+10 -4.326987e-05 3.525545e-03 -3.284884e-02 -1.014491e-02 -3.284884e-02 -1.014491e-02 -4.326987e-05 3.525545e-03
3.010398e+10 -4.671353e-05 3.526182e-03 -3.390411e-02 4.559567e-03 -3.390411e-02 4.559567e-03 -4.671353e-05 3.526182e-03
3.015397e+10 -4.936572e-05 3.529620e-03 -2.871480e-02 1.828026e-02 -2.871480e-02 1.828026e-02 -4.936572e-05 3.529620e-03
3.020396e+10 -4.939446e-05 3.534255e-03 -1.829684e-02 2.850402e-02 -1.829684e-02 2.850402e-02 -4.939446e-05 3.534255e-03
3.025395e+10 -4.683452e-05 3.537676e-03 -4.617508e-03 3.338550e-02 -4.617508e-03 3.338550e-02 -4.683452e-05 3.537676e-03
3.030394e+10 -4.352763e-05 3.538365e-03 9.775661e-03 3.207993e-02 9.775661e-03 3.207993e-02 -4.352763e-05 3.538365e-03
3.035393e+10 -4.180213e-05 3.536737e-03 2.222907e-02 2.488854e-02 2.222907e-02 2.488854e-02 -4.180213e-05 3.536737e-03
3.040392e+10 -4.283781e-05 3.534814e-03 3.047201e-02 1.319180e-02 3.047201e-02 1.319180e-02 -4.283781e-05 3.534814e-03
3.045391e+10 -4.586392e-05 3.534786e-03 3.303042e-02 -8.150264e-04 3.303042e-02 -8.150264e-04 -4.586392e-05 3.534786e-03
3.050390e+10 -4.873443e-05 3.537474e-03 2.949003e-02 -1.453360e-02 2.949003e-02 -1.453360e-02 -4.873443e-05 3.537474e-03
3.055389e+10 -4.945270e-05 3.541786e-03 2.056210e-02 -2.544425e-02 2.056210e-02 -2.544425e-02 -4.945270e-05 3.541786e-03
3.060388e+10 -4.756292e-05 3.545514e-03 7.941462e-03 -3.156853e-02 7.941462e-03 -3.156853e-02 -4.756292e-05 3.545514e-03
3.065387e+10 -4.443913e-05 3.546898e-03 -6.014768e-03 -3.182759e-02 -6.014768e-03 -3.182759e-02 -4.443913e-05 3.546898e-03
3.070386e+10 -4.229093e-05 3.545846e-03 -1.872719e-02 -2.623174e-02 -1.872719e-02 -2.623174e-02 -4.229093e-05 3.545846e-03
3.075385e+10 -4.260469e-05 3.543967e-03 -2.787058e-02 -1.586774e-02 -2.787058e-02 -1.586774e-02 -4.260469e-05 3.543967e-03
3.080384e+10 -4.511936e-05 3.543415e-03 -3.179892e-02 -2.688357e-03 -3.179892e-02 -2.688357e-03 -4.511936e-05 3.543415e-03
3.085383e+10 -4.804191e-05 3.545374e-03 -2.984139e-02 1.085523e-02 -2.984139e-02 1.085523e-02 -4.804191e-05 3.545374e-03
3.090382e+10 -4.932857e-05 3.549251e-03 -2.241603e-02 2.226909e-02 -2.241603e-02 2.226909e-02 -4.932857e-05 3.549251e-03
3.095381e+10 -4.811670e-05 3.553121e-03 -1.094216e-02 2.947550e-02 -1.094216e-02 2.947550e-02 -4.811670e-05 3.553121e-03
3.100380e+10 -4.530475e-05 3.555101e-03 2.430471e-03 3.119090e-02 2.430471e-03 3.119090e-02 -4.530475e-05 3.555101e-03
3.105379e+10 -4.289142e-05 3.554660e-03 1.522422e-02 2.715407e-02 1.522422e-02 2.715407e-02 -4.289142e-05 3.554660e-03
3.110378e+10 -4.255908e-05 3.552965e-03 2.509233e-02 1.816405e-02 2.509233e-02 1.816405e-02 -4.255908e-05 3.552965e-03
3.115377e+10 -4.450496e-05 3.552037e-03 3.024915e-02 5.922770e-03 3.024915e-02 5.922770e-03 -4.450496e-05 3.552037e-03
3.120376e+10 -4.733167e-05 3.553319e-03 2.979295e-02 -7.286805e-03 2.979295e-02 -7.286805e-03 -4.733167e-05 3.553319e-03
3.125375e+10 -4.905326e-05 3.556681e-03 2.386298e-02 -1.902619e-02 2.386298e-02 -1.902619e-02 -4.905326e-05 3.556681e-03
3.130374e+10 -4.849319e-05 3.560544e-03 1.360363e-02 -2.715127e-02 1.360363e-02 -2.715127e-02 -4.849319e-05 3.560544e-03
3.135373e+10 -4.609053e-05 3.563004e-03 9.440572e-04 -3.020370e-02 9.440572e-04 -3.020370e-02 -4.609053e-05 3.563004e-03
3.140372e+10 -4.356268e-05 3.563172e-03 -1.176426e-02 -2.767222e-02 -1.176426e-02 -2.767222e-02 -4.356268e-05 3.563172e-03
3.145371e+10 -4.268181e-05 3.561776e-03 -2.218406e-02 -2.007738e-02 -2.218406e-02 -2.007738e-02 -4.268181e-05 3.561776e-03
3.150370e+10 -4.403636e-05 3.560618e-03 -2.842196e-02 -8.865639e-03 -2.842196e-02 -8.865639e-03 -4.403636e-05 3.560618e-03
3.155369e+10 -4.664255e-05 3.561299e-03 -2.937217e-02 3.865768e-03 -2.937217e-02 3.865768e-03 -4.664255e-05 3.561299e-03
3.160368e+10 -4.866128e-05 3.564103e-03 -2.491211e-02 1.576084e-02 -2.491211e-02 1.576084e-02 -4.866128e-05 3.564103e-03
3.165367e+10 -4.869858e-05 3.567825e-03 -1.591520e-02 2.464057e-02 -1.591520e-02 2.464057e-02 -4.869858e-05 3.567825e-03
3.170366e+10 -4.677057e-05 3.570639e-03 -4.080499e-03 2.890191e-02 -4.080499e-03 2.890191e-02 -4.677057e-05 3.570639e-03
3.175365e+10 -4.426543e-05 3.571387e-03 8.387884e-03 2.780681e-02 8.387884e-03 2.780681e-02 -4.426543e-05 3.571387e-03
3.180364e+10 -4.294796e-05 3.570372e-03 1.919105e-02 2.160941e-02 1.919105e-02 2.160941e-02 -4.294796e-05 3.570372e-03
3.185363e+10 -4.372008e-05 3.569123e-03 2.635893e-02 1.149956e-02 2.635893e-02 1.149956e-02 -4.372008e-05 3.569123e-03
3.190362e+10 -4.600742e-05 3.569299e-03 2.860934e-02 -6.252160e-04 2.860934e-02 -6.252160e-04 -4.600742e-05 3.569299e-03
3.195361e+10 -4.818841e-05 3.571533e-03 2.557692e-02 -1.251558e-02 2.557692e-02 -1.251558e-02 -4.818841e-05 3.571533e-03
3.200360e+10 -4.874655e-05 3.575005e-03 1.787130e-02 -2.198746e-02 1.787130e-02 -2.198746e-02 -4.874655e-05 3.575005e-03
3.205359e+10 -4.732733e-05 3.578045e-03 6.955421e-03 -2.732301e-02 6.955421e-03 -2.732301e-02 -4.732733e-05 3.578045e-03
3.210358e+10 -4.496378e-05 3.579315e-03 -5.131917e-03 -2.758188e-02 -5.131917e-03 -2.758188e-02 -4.496378e-05 3.579315e-03
3.215357e+10 -4.332870e-05 3.578736e-03 -1.615657e-02 -2.276645e-02 -1.615657e-02 -2.276645e-02 -4.332870e-05 3.578736e-03
3.220356e+10 -4.355444e-05 3.577520e-03 -2.410180e-02 -1.381215e-02 -2.410180e-02 -1.381215e-02 -4.355444e-05 3.577520e-03
3.225355e+10 -4.545239e-05 3.577299e-03 -2.753698e-02 -2.406240e-03 -2.753698e-02 -2.406240e-03 -4.545239e-05 3.577299e-03
3.230354e+10 -4.766984e-05 3.578978e-03 -2.587484e-02 9.329843e-03 -2.587484e-02 9.329843e-03 -4.766984e-05 3.578978e-03
3.235353e+10 -4.865663e-05 3.582115e-03 -1.947121e-02 1.923483e-02 -1.947121e-02 1.923483e-02 -4.865663e-05 3.582115e-03
3.240352e+10 -4.775139e-05 3.585258e-03 -9.550235e-03 2.550542e-02 -9.550235e-03 2.550542e-02 -4.775139e-05 3.585258e-03
3.245351e+10 -4.562651e-05 3.586975e-03 2.029194e-03 2.702436e-02 2.029194e-03 2.702436e-02 -4.562651e-05 3.586975e-03
3.250350e+10 -4.379326e-05 3.586857e-03 1.312154e-02 2.355911e-02 1.312154e-02 2.355911e-02 -4.379326e-05 3.586857e-03
3.255349e+10 -4.353058e-05 3.585780e-03 2.169195e-02 1.579591e-02 2.169195e-02 1.579591e-02 -4.353058e-05 3.585780e-03
3.260348e+10 -4.499635e-05 3.585274e-03 2.618931e-02 5.204526e-03 2.618931e-02 5.204526e-03 -4.499635e-05 3.585274e-03
3.265347e+10 -4.713848e-05 3.586438e-03 2.582672e-02 -6.239665e-03 2.582672e-02 -6.239665e-03 -4.713848e-05 3.586438e-03
3.270346e+10 -4.845254e-05 3.589181e-03 2.071867e-02 -1.642392e-02 2.071867e-02 -1.642392e-02 -4.845254e-05 3.589181e-03
3.275345e+10 -4.804089e-05 3.592312e-03 1.185111e-02 -2.348797e-02 1.185111e-02 -2.348797e-02 -4.804089e-05 3.592312e-03
3.280344e+10 -4.622799e-05 3.594389e-03 8.915681e-04 -2.616355e-02 8.915681e-04 -2.616355e-02 -4.622799e-05 3.594389e-03
3.285343e+10 -4.431061e-05 3.594730e-03 -1.012413e-02 -2.400185e-02 -1.012413e-02 -2.400185e-02 -4.431061e-05 3.594730e-03
3.290342e+10 -4.363386e-05 3.593879e-03 -1.916988e-02 -1.744793e-02 -1.916988e-02 -1.744793e-02 -4.363386e-05 3.593879e-03
3.295341e+10 -4.465095e-05 3.593199e-03 -2.460170e-02 -7.750102e-03 -2.460170e-02 -7.750102e-03 -4.465095e-05 3.593199e-03
3.300340e+10 -4.662368e-05 3.593906e-03 -2.545634e-02 3.277472e-03 -2.545634e-02 3.277472e-03 -4.662368e-05 3.593906e-03
3.305339e+10 -4.816051e-05 3.596223e-03 -2.162164e-02 1.359397e-02 -2.162164e-02 1.359397e-02 -4.816051e-05 3.596223e-03
3.310338e+10 -4.820071e-05 3.599243e-03 -1.384882e-02 2.130939e-02 -1.384882e-02 2.130939e-02 -4.820071e-05 3.599243e-03
3.315337e+10 -4.674876e-05 3.601583e-03 -3.605856e-03 2.503057e-02 -3.605856e-03 2.503057e-02 -4.674876e-05 3.601583e-03
3.320336e+10 -4.485103e-05 3.602360e-03 7.199486e-03 2.411253e-02 7.199486e-03 2.411253e-02 -4.485103e-05 3.602360e-03
3.325335e+10 -4.384529e-05 3.601797e-03 1.657479e-02 1.876966e-02 1.657479e-02 1.876966e-02 -4.384529e-05 3.601797e-03
3.330334e+10 -4.442102e-05 3.601048e-03 2.281017e-02 1.002790e-02 2.281017e-02 1.002790e-02 -4.442102e-05 3.601048e-03
3.335333e+10 -4.615027e-05 3.601372e-03 2.478992e-02 -4.719140e-04 2.478992e-02 -4.719140e-04 -4.615027e-05 3.601372e-03
3.340332e+10 -4.780768e-05 3.603253e-03 2.219181e-02 -1.078180e-02 2.219181e-02 -1.078180e-02 -4.780768e-05 3.603253e-03
3.345331e+10 -4.824132e-05 3.606079e-03 1.553855e-02 -1.900783e-02 1.553855e-02 -1.900783e-02 -4.824132e-05 3.606079e-03
3.350330e+10 -4.717566e-05 3.608585e-03 6.093384e-03 -2.365786e-02 6.093384e-03 -2.365786e-02 -4.717566e-05 3.608585e-03
3.355329e+10 -4.538737e-05 3.609755e-03 -4.379475e-03 -2.391197e-02 -4.379475e-03 -2.391197e-02 -4.538737e-05 3.609755e-03
3.360328e+10 -4.414297e-05 3.609521e-03 -1.394417e-02 -1.976660e-02 -1.394417e-02 -1.976660e-02 -4.414297e-05 3.609521e-03
3.365327e+10 -4.430512e-05 3.608797e-03 -2.085086e-02 -1.202722e-02 -2.085086e-02 -1.202722e-02 -4.430512e-05 3.608797e-03
3.370326e+10 -4.573792e-05 3.608818e-03 -2.385564e-02 -2.152238e-03 -2.385564e-02 -2.152238e-03 -4.573792e-05 3.608818e-03
3.375325e+10 -4.742071e-05 3.610277e-03 -2.244428e-02 8.021546e-03 -2.244428e-02 8.021546e-03 -4.742071e-05 3.610277e-03
3.380324e+10 -4.817764e-05 3.612845e-03 -1.691967e-02 1.662043e-02 -1.691967e-02 1.662043e-02 -4.817764e-05 3.612845e-03
3.385323e+10 -4.750169e-05 3.615424e-03 -8.338063e-03 2.207870e-02 -8.338063e-03 2.207870e-02 -4.750169e-05 3.615424e-03
3.390322e+10 -4.589605e-05 3.616930e-03 1.692534e-03 2.342351e-02 1.692534e-03 2.342351e-02 -4.589605e-05 3.616930e-03
3.395321e+10 -4.450352e-05 3.617043e-03 1.131346e-02 2.044794e-02 1.131346e-02 2.044794e-02 -4.450352e-05 3.617043e-03
3.400320e+10 -4.429643e-05 3.616424e-03 1.875961e-02 1.374155e-02 1.875961e-02 1.374155e-02 -4.429643e-05 3.616424e-03
3.405319e+10 -4.540080e-05 3.616229e-03 2.268313e-02 4.574141e-03 2.268313e-02 4.574141e-03 -4.540080e-05 3.616229e-03
3.410318e+10 -4.702449e-05 3.617295e-03 2.239711e-02 -5.344425e-03 2.239711e-02 -5.344425e-03 -4.702449e-05 3.617295e-03
3.415317e+10 -4.802771e-05 3.619561e-03 1.799545e-02 -1.418293e-02 1.799545e-02 -1.418293e-02 -4.802771e-05 3.619561e-03
3.420316e+10 -4.772559e-05 3.622127e-03 1.032792e-02 -2.032673e-02 1.032792e-02 -2.032673e-02 -4.772559e-05 3.622127e-03
3.425315e+10 -4.635774e-05 3.623901e-03 8.364736e-04 -2.267251e-02 8.364736e-04 -2.267251e-02 -4.635774e-05 3.623901e-03
3.430314e+10 -4.490345e-05 3.624360e-03 -8.715690e-03 -2.082620e-02 -8.715690e-03 -2.082620e-02 -4.490345e-05 3.624360e-03
3.435313e+10 -4.438375e-05 3.623911e-03 -1.657150e-02 -1.516841e-02 -1.657150e-02 -1.516841e-02 -4.438375e-05 3.623911e-03
3.440312e+10 -4.514767e-05 3.623584e-03 -2.130305e-02 -6.776881e-03 -2.130305e-02 -6.776881e-03 -4.514767e-05 3.623584e-03
3.445311e+10 -4.664124e-05 3.624302e-03 -2.207092e-02 2.778512e-03 -2.207092e-02 2.778512e-03 -4.664124e-05 3.624302e-03
3.450310e+10 -4.781147e-05 3.626242e-03 -1.877279e-02 1.172929e-02 -1.877279e-02 1.172929e-02 -4.781147e-05 3.626242e-03
3.455309e+10 -4.785114e-05 3.628720e-03 -1.205498e-02 1.843549e-02 -1.205498e-02 1.843549e-02 -4.785114e-05 3.628720e-03
3.460308e+10 -4.675781e-05 3.630689e-03 -3.186322e-03 2.168596e-02 -3.186322e-03 2.168596e-02 -4.675781e-05 3.630689e-03
3.465307e+10 -4.532024e-05 3.631476e-03 6.181314e-03 2.091687e-02 6.181314e-03 2.091687e-02 -4.532024e-05 3.631476e-03
3.470306e+10 -4.455261e-05 3.631244e-03 1.432049e-02 1.630905e-02 1.432049e-02 1.630905e-02 -4.455261e-05 3.631244e-03
3.475305e+10 -4.498203e-05 3.630864e-03 1.974658e-02 8.747418e-03 1.974658e-02 8.747418e-03 -4.498203e-05 3.630864e-03
3.480304e+10 -4.628968e-05 3.631291e-03 2.148842e-02 -3.486197e-04 2.148842e-02 -3.486197e-04 -4.628968e-05 3.631291e-03
3.485303e+10 -4.754950e-05 3.632898e-03 1.926182e-02 -9.291417e-03 1.926182e-02 -9.291417e-03 -4.754950e-05 3.632898e-03
3.490302e+10 -4.788641e-05 3.635225e-03 1.351509e-02 -1.643805e-02 1.351509e-02 -1.643805e-02 -4.788641e-05 3.635225e-03
3.495301e+10 -4.708637e-05 3.637316e-03 5.339449e-03 -2.049196e-02 5.339449e-03 -2.049196e-02 -4.708637e-05 3.637316e-03
3.500300e+10 -4.573336e-05 3.638398e-03 -3.737934e-03 -2.073801e-02 -3.737934e-03 -2.073801e-02 -4.573336e-05 3.638398e-03
3.505299e+10 -4.478637e-05 3.638413e-03 -1.203905e-02 -1.716825e-02 -1.203905e-02 -1.716825e-02 -4.478637e-05 3.638413e-03
3.510298e+10 -4.490271e-05 3.638051e-03 -1.804506e-02 -1.047649e-02 -1.804506e-02 -1.047649e-02 -4.490271e-05 3.638051e-03
3.515297e+10 -4.598464e-05 3.638248e-03 -2.067404e-02 -1.923803e-03 -2.067404e-02 -1.923803e-03 -4.598464e-05 3.638248e-03
3.520296e+10 -4.726200e-05 3.639533e-03 -1.947564e-02 6.898882e-03 -1.947564e-02 6.898882e-03 -4.726200e-05 3.639533e-03
3.525295e+10 -4.784277e-05 3.641661e-03 -1.470770e-02 1.436657e-02 -1.470770e-02 1.436657e-02 -4.784277e-05 3.641661e-03
3.530294e+10 -4.733825e-05 3.643803e-03 -7.281928e-03 1.911935e-02 -7.281928e-03 1.911935e-02 -4.733825e-05 3.643803e-03
3.535293e+10 -4.612499e-05 3.645136e-03 1.410175e-03 2.030983e-02 1.410175e-03 2.030983e-02 -4.612499e-05 3.645136e-03
3.540292e+10 -4.506730e-05 3.645413e-03 9.757872e-03 1.775399e-02 9.757872e-03 1.775399e-02 -4.506730e-05 3.645413e-03
3.545291e+10 -4.490444e-05 3.645130e-03 1.622953e-02 1.195848e-02 1.622953e-02 1.195848e-02 -4.490444e-05 3.645130e-03
3.550290e+10 -4.573678e-05 3.645162e-03 1.965346e-02 4.020708e-03 1.965346e-02 4.020708e-03 -4.573678e-05 3.645162e-03
3.555289e+10 -4.696782e-05 3.646147e-03 1.942991e-02 -4.578716e-03 1.942991e-02 -4.578716e-03 -4.696782e-05 3.646147e-03
3.560288e+10 -4.773395e-05 3.648043e-03 1.563568e-02 -1.225202e-02 1.563568e-02 -1.225202e-02 -4.773395e-05 3.648043e-03
3.565287e+10 -4.751257e-05 3.650172e-03 9.003399e-03 -1.759727e-02 9.003399e-03 -1.759727e-02 -4.751257e-05 3.650172e-03
3.570286e+10 -4.648058e-05 3.651705e-03 7.804275e-04 -1.965434e-02 7.804275e-04 -1.965434e-02 -4.648058e-05 3.651705e-03
3.575285e+10 -4.537756e-05 3.652242e-03 -7.505597e-03 -1.807713e-02 -7.505597e-03 -1.807713e-02 -4.537756e-05 3.652242e-03
3.580284e+10 -4.497867e-05 3.652087e-03 -1.433038e-02 -1.319123e-02 -1.433038e-02 -1.319123e-02 -4.497867e-05 3.652087e-03
3.585283e+10 -4.555264e-05 3.652018e-03 -1.845325e-02 -5.927453e-03 -1.845325e-02 -5.927453e-03 -4.555264e-05 3.652018e-03
3.590282e+10 -4.668375e-05 3.652738e-03 -1.914251e-02 2.355244e-03 -1.914251e-02 2.355244e-03 -4.668375e-05 3.652738e-03
3.595281e+10 -4.757509e-05 3.654384e-03 -1.630499e-02 1.012383e-02 -1.630499e-02 1.012383e-02 -4.757509e-05 3.654384e-03
3.600280e+10 -4.761230e-05 3.656442e-03 -1.049696e-02 1.595481e-02 -1.049696e-02 1.595481e-02 -4.761230e-05 3.656442e-03
3.605279e+10 -4.678909e-05 3.658120e-03 -2.815494e-03 1.879490e-02 -2.815494e-03 1.879490e-02 -4.678909e-05 3.658120e-03
3.610278e+10 -4.570013e-05 3.658903e-03 5.308588e-03 1.815110e-02 5.308588e-03 1.815110e-02 -4.570013e-05 3.658903e-03
3.615277e+10 -4.511438e-05 3.658911e-03 1.237706e-02 1.417586e-02 1.237706e-02 1.417586e-02 -4.511438e-05 3.658911e-03
3.620276e+10 -4.543480e-05 3.658801e-03 1.710045e-02 7.632749e-03 1.710045e-02 7.632749e-03 -4.543480e-05 3.658801e-03
3.625275e+10 -4.642393e-05 3.659299e-03 1.863313e-02 -2.499545e-04 1.863313e-02 -2.499545e-04 -4.642393e-05 3.659299e-03
3.630274e+10 -4.738183e-05 3.660690e-03 1.672445e-02 -8.009637e-03 1.672445e-02 -8.009637e-03 -4.738183e-05 3.660690e-03
3.635273e+10 -4.764362e-05 3.662631e-03 1.175903e-02 -1.422061e-02 1.175903e-02 -1.422061e-02 -4.764362e-05 3.662631e-03
3.640272e+10 -4.704313e-05 3.664398e-03 4.679817e-03 -1.775590e-02 4.679817e-03 -1.775590e-02 -4.704313e-05 3.664398e-03
3.645271e+10 -4.601946e-05 3.665401e-03 -3.190764e-03 -1.799157e-02 -3.190764e-03 -1.799157e-02 -4.601946e-05 3.665401e-03
3.650270e+10 -4.529890e-05 3.665595e-03 -1.039769e-02 -1.491653e-02 -1.039769e-02 -1.491653e-02 -4.529890e-05 3.665595e-03
3.655269e+10 -4.538229e-05 3.665498e-03 -1.562220e-02 -9.128585e-03 -1.562220e-02 -9.128585e-03 -4.538229e-05 3.665498e-03
3.660268e+10 -4.619954e-05 3.665821e-03 -1.792295e-02 -1.718573e-03 -1.792295e-02 -1.718573e-03 -4.619954e-05 3.665821e-03
3.665267e+10 -4.716945e-05 3.666966e-03 -1.690542e-02 5.935066e-03 -1.690542e-02 5.935066e-03 -4.716945e-05 3.666966e-03
3.670266e+10 -4.761520e-05 3.668753e-03 -1.278916e-02 1.242255e-02 -1.278916e-02 1.242255e-02 -4.761520e-05 3.668753e-03
3.675265e+10 -4.723883e-05 3.670555e-03 -6.361340e-03 1.656232e-02 -6.361340e-03 1.656232e-02 -4.723883e-05 3.670555e-03
3.680264e+10 -4.632211e-05 3.671746e-03 1.173459e-03 1.761606e-02 1.173459e-03 1.761606e-02 -4.632211e-05 3.671746e-03
3.685263e+10 -4.551880e-05 3.672137e-03 8.418881e-03 1.542015e-02 8.418881e-03 1.542015e-02 -4.551880e-05 3.672137e-03
3.690262e+10 -4.539105e-05 3.672099e-03 1.404542e-02 1.041011e-02 1.404542e-02 1.041011e-02 -4.539105e-05 3.672099e-03
3.695261e+10 -4.601860e-05 3.672295e-03 1.703424e-02 3.534709e-03 1.703424e-02 3.534709e-03 -4.601860e-05 3.672295e-03
3.700260e+10 -4.695224e-05 3.673211e-03 1.686150e-02 -3.923541e-03 1.686150e-02 -3.923541e-03 -4.695224e-05 3.673211e-03
3.705259e+10 -4.753751e-05 3.674820e-03 1.358983e-02 -1.058748e-02 1.358983e-02 -1.058748e-02 -4.753751e-05 3.674820e-03
3.710258e+10 -4.737562e-05 3.676608e-03 7.851098e-03 -1.523946e-02 7.851098e-03 -1.523946e-02 -4.737562e-05 3.676608e-03
3.715257e+10 -4.659708e-05 3.677948e-03 7.246757e-04 -1.704367e-02 7.246757e-04 -1.704367e-02 -4.659708e-05 3.677948e-03
3.720256e+10 -4.576054e-05 3.678534e-03 -6.465441e-03 -1.569616e-02 -6.465441e-03 -1.569616e-02 -4.576054e-05 3.678534e-03
3.725255e+10 -4.545454e-05 3.678591e-03 -1.239646e-02 -1.147547e-02 -1.239646e-02 -1.147547e-02 -4.545454e-05 3.678591e-03
3.730254e+10 -4.588599e-05 3.678710e-03 -1.599004e-02 -5.185774e-03 -1.599004e-02 -5.185774e-03 -4.588599e-05 3.678710e-03
3.735253e+10 -4.674289e-05 3.679424e-03 -1.660817e-02 1.996136e-03 -1.660817e-02 1.996136e-03 -4.674289e-05 3.679424e-03
3.740252e+10 -4.742204e-05 3.680841e-03 -1.416624e-02 8.740896e-03 -1.416624e-02 8.740896e-03 -4.742204e-05 3.680841e-03
3.745251e+10 -4.745581e-05 3.682573e-03 -9.143126e-03 1.381250e-02 -9.143126e-03 1.381250e-02 -4.745581e-05 3.682573e-03
3.750250e+10 -4.683608e-05 3.684019e-03 -2.487718e-03 1.629466e-02 -2.487718e-03 1.629466e-02 -4.683608e-05 3.684019e-03
3.755249e+10 -4.601123e-05 3.684789e-03 4.560221e-03 1.575622e-02 4.560221e-03 1.575622e-02 -4.601123e-05 3.684789e-03
3.760248e+10 -4.556437e-05 3.684969e-03 1.070083e-02 1.232565e-02 1.070083e-02 1.232565e-02 -4.556437e-05 3.684969e-03
3.765247e+10 -4.580361e-05 3.685056e-03 1.481379e-02 6.661999e-03 1.481379e-02 6.661999e-03 -4.580361e-05 3.685056e-03
3.770246e+10 -4.655208e-05 3.685600e-03 1.616254e-02 -1.714686e-04 1.616254e-02 -1.714686e-04 -4.655208e-05 3.685600e-03
3.775245e+10 -4.728066e-05 3.686821e-03 1.452604e-02 -6.906757e-03 1.452604e-02 -6.906757e-03 -4.728066e-05 3.686821e-03
3.780244e+10 -4.748414e-05 3.688461e-03 1.023433e-02 -1.230629e-02 1.023433e-02 -1.230629e-02 -4.748414e-05 3.688461e-03
3.785243e+10 -4.703355e-05 3.689973e-03 4.102497e-03 -1.539018e-02 4.102497e-03 -1.539018e-02 -4.703355e-05 3.689973e-03
3.790242e+10 -4.625911e-05 3.690907e-03 -2.723948e-03 -1.561392e-02 -2.723948e-03 -1.561392e-02 -4.625911e-05 3.690907e-03
3.795241e+10 -4.571092e-05 3.691227e-03 -8.982930e-03 -1.296426e-02 -8.982930e-03 -1.296426e-02 -4.571092e-05 3.691227e-03
3.800240e+10 -4.577066e-05 3.691323e-03 -1.352903e-02 -7.956454e-03 -1.352903e-02 -7.956454e-03 -4.577066e-05 3.691323e-03
3.805239e+10 -4.638824e-05 3.691733e-03 -1.554298e-02 -1.534365e-03 -1.554298e-02 -1.534365e-03 -4.638824e-05 3.691733e-03
3.810238e+10 -4.712496e-05 3.692765e-03 -1.467911e-02 5.107273e-03 -1.467911e-02 5.107273e-03 -4.712496e-05 3.692765e-03
3.815237e+10 -4.746723e-05 3.694286e-03 -1.112434e-02 1.074500e-02 -1.112434e-02 1.074500e-02 -4.746723e-05 3.694286e-03
3.820236e+10 -4.718663e-05 3.695821e-03 -5.558577e-03 1.435190e-02 -5.558577e-03 1.435190e-02 -4.718663e-05 3.695821e-03
3.825235e+10 -4.649403e-05 3.696896e-03 9.751069e-04 1.528448e-02 9.751069e-04 1.528448e-02 -4.649403e-05 3.696896e-03
3.830234e+10 -4.588398e-05 3.697363e-03 7.265807e-03 1.339733e-02 7.265807e-03 1.339733e-02 -4.588398e-05 3.697363e-03
3.835233e+10 -4.578403e-05 3.697502e-03 1.215911e-02 9.064946e-03 1.215911e-02 9.064946e-03 -4.578403e-05 3.697502e-03
3.840232e+10 -4.625740e-05 3.697815e-03 1.476880e-02 3.107829e-03 1.476880e-02 3.107829e-03 -4.625740e-05 3.697815e-03
3.845231e+10 -4.696574e-05 3.698672e-03 1.463724e-02 -3.362745e-03 1.463724e-02 -3.362745e-03 -4.696574e-05 3.698672e-03
3.850230e+10 -4.741304e-05 3.700055e-03 1.181533e-02 -9.151908e-03 1.181533e-02 -9.151908e-03 -4.741304e-05 3.700055e-03
3.855229e+10 -4.729494e-05 3.701578e-03 6.848199e-03 -1.320174e-02 6.848199e-03 -1.320174e-02 -4.729494e-05 3.701578e-03
3.860228e+10 -4.670768e-05 3.702762e-03 6.701392e-04 -1.478446e-02 6.701392e-04 -1.478446e-02 -4.670768e-05 3.702762e-03
3.865227e+10 -4.607329e-05 3.703375e-03 -5.570978e-03 -1.363306e-02 -5.570978e-03 -1.363306e-02 -4.607329e-05 3.703375e-03
3.870226e+10 -4.583871e-05 3.703586e-03 -1.072687e-02 -9.985890e-03 -1.072687e-02 -9.985890e-03 -4.583871e-05 3.703586e-03
3.875225e+10 -4.616321e-05 3.703839e-03 -1.385998e-02 -4.537941e-03 -1.385998e-02 -4.537941e-03 -4.616321e-05 3.703839e-03
3.880224e+10 -4.681262e-05 3.704542e-03 -1.441388e-02 1.691436e-03 -1.441388e-02 1.691436e-03 -4.681262e-05 3.704542e-03
3.885223e+10 -4.733032e-05 3.705777e-03 -1.231182e-02 7.549120e-03 -1.231182e-02 7.549120e-03 -4.733032e-05 3.705777e-03
3.890222e+10 -4.736028e-05 3.707253e-03 -7.966208e-03 1.196156e-02 -7.966208e-03 1.196156e-02 -4.736028e-05 3.707253e-03
3.895221e+10 -4.689383e-05 3.708516e-03 -2.197998e-03 1.413144e-02 -2.197998e-03 1.413144e-02 -4.689383e-05 3.708516e-03
3.900220e+10 -4.626908e-05 3.709267e-03 3.918248e-03 1.368156e-02 3.918248e-03 1.368156e-02 -4.626908e-05 3.709267e-03
3.905219e+10 -4.592830e-05 3.709569e-03 9.254429e-03 1.072016e-02 9.254429e-03 1.072016e-02 -4.592830e-05 3.709569e-03
3.910218e+10 -4.610706e-05 3.709797e-03 1.283687e-02 5.816247e-03 1.283687e-02 5.816247e-03 -4.610706e-05 3.709797e-03
3.915217e+10 -4.667367e-05 3.710369e-03 1.402387e-02 -1.094821e-04 1.402387e-02 -1.094821e-04 -4.667367e-05 3.710369e-03
3.920216e+10 -4.722806e-05 3.711455e-03 1.262047e-02 -5.957408e-03 1.262047e-02 -5.957408e-03 -4.722806e-05 3.711455e-03
3.925215e+10 -4.738629e-05 3.712859e-03 8.909938e-03 -1.065292e-02 8.909938e-03 -1.065292e-02 -4.738629e-05 3.712859e-03
3.930214e+10 -4.704831e-05 3.714169e-03 3.597063e-03 -1.334376e-02 3.597063e-03 -1.334376e-02 -4.704831e-05 3.714169e-03
3.935213e+10 -4.646247e-05 3.715042e-03 -2.325583e-03 -1.355464e-02 -2.325583e-03 -1.355464e-02 -4.646247e-05 3.715042e-03
3.940212e+10 -4.604551e-05 3.715449e-03 -7.762952e-03 -1.127089e-02 -7.762952e-03 -1.127089e-02 -4.604551e-05 3.715449e-03
3.945211e+10 -4.608832e-05 3.715682e-03 -1.171989e-02 -6.936753e-03 -1.171989e-02 -6.936753e-03 -4.608832e-05 3.715682e-03
3.950210e+10 -4.655523e-05 3.716152e-03 -1.348315e-02 -1.369172e-03 -1.348315e-02 -1.369172e-03 -4.655523e-05 3.716152e-03
3.955209e+10 -4.711506e-05 3.717092e-03 -1.274984e-02 4.396029e-03 -1.274984e-02 4.396029e-03 -4.711506e-05 3.717092e-03
3.960208e+10 -4.737802e-05 3.718403e-03 -9.679084e-03 9.296764e-03 -9.679084e-03 9.296764e-03 -4.737802e-05 3.718403e-03
3.965207e+10 -4.716899e-05 3.719729e-03 -4.858297e-03 1.244025e-02 -4.858297e-03 1.244025e-02 -4.716899e-05 3.719729e-03
3.970206e+10 -4.664577e-05 3.720706e-03 8.090037e-04 1.326551e-02 8.090037e-04 1.326551e-02 -4.664577e-05 3.720706e-03
3.975205e+10 -4.618257e-05 3.721222e-03 6.272424e-03 1.164334e-02 6.272424e-03 1.164334e-02 -4.618257e-05 3.721222e-03
3.980204e+10 -4.610457e-05 3.721488e-03 1.052928e-02 7.895837e-03 1.052928e-02 7.895837e-03 -4.610457e-05 3.721488e-03
3.985203e+10 -4.646184e-05 3.721883e-03 1.280850e-02 2.732799e-03 1.280850e-02 2.732799e-03 -4.646184e-05 3.721883e-03
3.990202e+10 -4.699950e-05 3.722688e-03 1.271019e-02 -2.882579e-03 1.271019e-02 -2.882579e-03 -4.699950e-05 3.722688e-03
3.995201e+10 -4.734152e-05 3.723894e-03 1.027555e-02 -7.913285e-03 1.027555e-02 -7.913285e-03 -4.734152e-05 3.723894e-03
4.000200e+10 -4.725563e-05 3.725206e-03 5.974987e-03 -1.143990e-02 5.974987e-03 -1.143990e-02 -4.725563e-05 3.725206e-03
4.005199e+10 -4.681273e-05 3.726265e-03 6.174819e-04 -1.282854e-02 6.174819e-04 -1.282854e-02 -4.681273e-05 3.726265e-03
4.010198e+10 -4.633170e-05 3.726890e-03 -4.801499e-03 -1.184462e-02 -4.801499e-03 -1.184462e-02 -4.633170e-05 3.726890e-03
4.015197e+10 -4.615201e-05 3.727209e-03 -9.284858e-03 -8.692144e-03 -9.284858e-03 -8.692144e-03 -4.615201e-05 3.727209e-03
4.020196e+10 -4.639624e-05 3.727557e-03 -1.201724e-02 -3.971889e-03 -1.201724e-02 -3.971889e-03 -4.639624e-05 3.727557e-03
4.025195e+10 -4.688864e-05 3.728244e-03 -1.251320e-02 1.432892e-03 -1.251320e-02 1.432892e-03 -4.688864e-05 3.728244e-03
4.030194e+10 -4.728346e-05 3.729335e-03 -1.070327e-02 6.521659e-03 -1.070327e-02 6.521659e-03 -4.728346e-05 3.729335e-03
4.035193e+10 -4.730963e-05 3.730611e-03 -6.942677e-03 1.036170e-02 -6.942677e-03 1.036170e-02 -4.730963e-05 3.730611e-03
4.040192e+10 -4.695864e-05 3.731727e-03 -1.941923e-03 1.225900e-02 -1.941923e-03 1.225900e-02 -4.695864e-05 3.731727e-03
4.045191e+10 -4.648552e-05 3.732455e-03 3.367352e-03 1.188354e-02 3.367352e-03 1.188354e-02 -4.648552e-05 3.732455e-03
4.050190e+10 -4.622574e-05 3.732841e-03 8.005822e-03 9.326443e-03 8.005822e-03 9.326443e-03 -4.622574e-05 3.732841e-03
4.055189e+10 -4.635945e-05 3.733169e-03 1.112703e-02 5.079122e-03 1.112703e-02 5.079122e-03 -4.635945e-05 3.733169e-03
4.060188e+10 -4.678859e-05 3.733756e-03 1.217175e-02 -6.095352e-05 1.217175e-02 -6.095352e-05 -4.678859e-05 3.733756e-03
4.065187e+10 -4.721065e-05 3.734731e-03 1.096803e-02 -5.139899e-03 1.096803e-02 -5.139899e-03 -4.721065e-05 3.734731e-03
4.070186e+10 -4.733377e-05 3.735950e-03 7.759071e-03 -9.224332e-03 7.759071e-03 -9.224332e-03 -4.733377e-05 3.735950e-03
4.075185e+10 -4.708038e-05 3.737099e-03 3.154439e-03 -1.157282e-02 3.154439e-03 -1.157282e-02 -4.708038e-05 3.737099e-03
4.080184e+10 -4.663728e-05 3.737918e-03 -1.985557e-03 -1.177035e-02 -1.985557e-03 -1.177035e-02 -4.663728e-05 3.737918e-03
4.085183e+10 -4.632022e-05 3.738383e-03 -6.710517e-03 -9.801483e-03 -6.710517e-03 -9.801483e-03 -4.632022e-05 3.738383e-03
4.090182e+10 -4.635095e-05 3.738714e-03 -1.015559e-02 -6.049315e-03 -1.015559e-02 -6.049315e-03 -4.635095e-05 3.738714e-03
4.095181e+10 -4.670414e-05 3.739221e-03 -1.169968e-02 -1.221151e-03 -1.169968e-02 -1.221151e-03 -4.670414e-05 3.739221e-03
4.100180e+10 -4.712976e-05 3.740085e-03 -1.107730e-02 3.784703e-03 -1.107730e-02 3.784703e-03 -4.712976e-05 3.740085e-03
4.105179e+10 -4.733192e-05 3.741231e-03 -8.423922e-03 8.045987e-03 -8.423922e-03 8.045987e-03 -4.733192e-05 3.741231e-03
4.110178e+10 -4.717637e-05 3.742390e-03 -4.247205e-03 1.078631e-02 -4.247205e-03 1.078631e-02 -4.717637e-05 3.742390e-03
4.115177e+10 -4.678119e-05 3.743286e-03 6.700046e-04 1.151651e-02 6.700046e-04 1.151651e-02 -4.678119e-05 3.743286e-03
4.120176e+10 -4.642956e-05 3.743832e-03 5.416283e-03 1.012183e-02 5.416283e-03 1.012183e-02 -4.642956e-05 3.743832e-03
4.125175e+10 -4.636888e-05 3.744186e-03 9.120486e-03 6.879344e-03 9.120486e-03 6.879344e-03 -4.636888e-05 3.744186e-03
4.130174e+10 -4.663870e-05 3.744636e-03 1.111155e-02 2.403261e-03 1.111155e-02 2.403261e-03 -4.663870e-05 3.744636e-03
4.135173e+10 -4.704700e-05 3.745396e-03 1.103996e-02 -2.471332e-03 1.103996e-02 -2.471332e-03 -4.704700e-05 3.745396e-03
4.140172e+10 -4.730870e-05 3.746460e-03 8.938895e-03 -6.844169e-03 8.938895e-03 -6.844169e-03 -4.730870e-05 3.746460e-03
4.145171e+10 -4.724646e-05 3.747607e-03 5.214411e-03 -9.915986e-03 5.214411e-03 -9.915986e-03 -4.724646e-05 3.747607e-03
4.150170e+10 -4.691252e-05 3.748562e-03 5.671643e-04 -1.113452e-02 5.671643e-04 -1.113452e-02 -4.691252e-05 3.748562e-03
4.155169e+10 -4.654786e-05 3.749190e-03 -4.139300e-03 -1.029367e-02 -4.139300e-03 -1.029367e-02 -4.654786e-05 3.749190e-03
4.160168e+10 -4.641033e-05 3.749582e-03 -8.038922e-03 -7.568045e-03 -8.038922e-03 -7.568045e-03 -4.641033e-05 3.749582e-03
4.165167e+10 -4.659432e-05 3.749996e-03 -1.042242e-02 -3.477140e-03 -1.042242e-02 -3.477140e-03 -4.659432e-05 3.749996e-03
4.170166e+10 -4.696786e-05 3.750665e-03 -1.086618e-02 1.213513e-03 -1.086618e-02 1.213513e-03 -4.696786e-05 3.750665e-03
4.175165e+10 -4.726914e-05 3.751640e-03 -9.307425e-03 5.635519e-03 -9.307425e-03 5.635519e-03 -4.726914e-05 3.751640e-03
4.180164e+10 -4.729174e-05 3.752757e-03 -6.052208e-03 8.978308e-03 -6.052208e-03 8.978308e-03 -4.729174e-05 3.752757e-03
4.185163e+10 -4.702773e-05 3.753754e-03 -1.715593e-03 1.063763e-02 -1.715593e-03 1.063763e-02 -4.702773e-05 3.753754e-03
4.190162e+10 -4.666951e-05 3.754457e-03 2.894461e-03 1.032467e-02 2.894461e-03 1.032467e-02 -4.666951e-05 3.754457e-03
4.195161e+10 -4.647159e-05 3.754900e-03 6.927545e-03 8.116106e-03 6.927545e-03 8.116106e-03 -4.647159e-05 3.754900e-03
4.200160e+10 -4.657174e-05 3.755297e-03 9.647598e-03 4.436450e-03 9.647598e-03 4.436450e-03 -4.657174e-05 3.755297e-03
4.205159e+10 -4.689696e-05 3.755889e-03 1.056715e-02 -2.337086e-05 1.056715e-02 -2.337086e-05 -4.689696e-05 3.755889e-03
4.210158e+10 -4.721845e-05 3.756775e-03 9.534552e-03 -4.435663e-03 9.534552e-03 -4.435663e-03 -4.721845e-05 3.756775e-03
4.215157e+10 -4.731434e-05 3.757847e-03 6.758618e-03 -7.989496e-03 6.758618e-03 -7.989496e-03 -4.731434e-05 3.757847e-03
4.220156e+10 -4.712449e-05 3.758866e-03 2.766720e-03 -1.003966e-02 2.766720e-03 -1.003966e-02 -4.712449e-05 3.758866e-03
4.225155e+10 -4.678943e-05 3.759637e-03 -1.695273e-03 -1.022373e-02 -1.695273e-03 -1.022373e-02 -4.678943e-05 3.759637e-03
4.230154e+10 -4.654843e-05 3.760138e-03 -5.802276e-03 -8.525927e-03 -5.802276e-03 -8.525927e-03 -4.654843e-05 3.760138e-03
4.235153e+10 -4.657055e-05 3.760536e-03 -8.802475e-03 -5.276709e-03 -8.802475e-03 -5.276709e-03 -4.657055e-05 3.760536e-03
4.240152e+10 -4.683790e-05 3.761066e-03 -1.015488e-02 -1.088618e-03 -1.015488e-02 -1.088618e-03 -4.683790e-05 3.761066e-03
4.245151e+10 -4.716168e-05 3.761866e-03 -9.626757e-03 3.259084e-03 -9.626757e-03 3.259084e-03 -4.716168e-05 3.761866e-03
4.250150e+10 -4.731722e-05 3.762881e-03 -7.333444e-03 6.965337e-03 -7.333444e-03 6.965337e-03 -4.731722e-05 3.762881e-03
4.255149e+10 -4.720162e-05 3.763906e-03 -3.713770e-03 9.354799e-03 -3.713770e-03 9.354799e-03 -4.720162e-05 3.763906e-03
4.260148e+10 -4.690322e-05 3.764733e-03 5.537818e-04 1.000082e-02 5.537818e-04 1.000082e-02 -4.690322e-05 3.764733e-03
4.265147e+10 -4.663637e-05 3.765295e-03 4.678158e-03 8.801483e-03 4.678158e-03 8.801483e-03 -4.663637e-05 3.765295e-03
4.270146e+10 -4.658932e-05 3.765709e-03 7.902299e-03 5.995221e-03 7.902299e-03 5.995221e-03 -4.658932e-05 3.765709e-03
4.275145e+10 -4.679326e-05 3.766194e-03 9.642022e-03 2.113649e-03 9.642022e-03 2.113649e-03 -4.679326e-05 3.766194e-03
4.280144e+10 -4.710352e-05 3.766914e-03 9.591780e-03 -2.119020e-03 9.591780e-03 -2.119020e-03 -4.710352e-05 3.766914e-03
4.285143e+10 -4.730390e-05 3.767865e-03 7.778147e-03 -5.921022e-03 7.778147e-03 -5.921022e-03 -4.730390e-05 3.767865e-03
4.290142e+10 -4.725902e-05 3.768879e-03 4.551716e-03 -8.597364e-03 4.551716e-03 -8.597364e-03 -4.725902e-05 3.768879e-03
4.295141e+10 -4.700733e-05 3.769750e-03 5.194882e-04 -9.666779e-03 5.194882e-04 -9.666779e-03 -4.700733e-05 3.769750e-03
4.300140e+10 -4.673095e-05 3.770371e-03 -3.569230e-03 -8.948170e-03 -3.569230e-03 -8.948170e-03 -4.673095e-05 3.770371e-03
4.305139e+10 -4.662583e-05 3.770813e-03 -6.961999e-03 -6.590994e-03 -6.961999e-03 -6.590994e-03 -4.662583e-05 3.770813e-03
4.310138e+10 -4.676457e-05 3.771270e-03 -9.041646e-03 -3.044587e-03 -9.041646e-03 -3.044587e-03 -4.676457e-05 3.771270e-03
4.315137e+10 -4.704814e-05 3.771919e-03 -9.438447e-03 1.027374e-03 -9.438447e-03 1.027374e-03 -4.704814e-05 3.771919e-03
4.320136e+10 -4.727820e-05 3.772801e-03 -8.095723e-03 4.870990e-03 -8.095723e-03 4.870990e-03 -4.727820e-05 3.772801e-03
4.325135e+10 -4.729754e-05 3.773791e-03 -5.277230e-03 7.781652e-03 -5.277230e-03 7.781652e-03 -4.729754e-05 3.773791e-03
4.330134e+10 -4.709907e-05 3.774691e-03 -1.515560e-03 9.233134e-03 -1.515560e-03 9.233134e-03 -4.709907e-05 3.774691e-03
4.335133e+10 -4.682792e-05 3.775368e-03 2.488410e-03 8.972638e-03 2.488410e-03 8.972638e-03 -4.682792e-05 3.775368e-03
4.340132e+10 -4.667724e-05 3.775848e-03 5.996025e-03 7.064637e-03 5.996025e-03 7.064637e-03 -4.667724e-05 3.775848e-03
4.345131e+10 -4.675238e-05 3.776291e-03 8.367057e-03 3.875945e-03 8.367057e-03 3.875945e-03 -4.675238e-05 3.776291e-03
4.350130e+10 -4.699902e-05 3.776880e-03 9.176482e-03 5.338461e-06 9.176482e-03 5.338461e-06 -4.699902e-05 3.776880e-03
4.355129e+10 -4.724407e-05 3.777692e-03 8.290561e-03 -3.828800e-03 8.290561e-03 -3.828800e-03 -4.724407e-05 3.777692e-03
4.360128e+10 -4.731884e-05 3.778646e-03 5.888615e-03 -6.921744e-03 5.888615e-03 -6.921744e-03 -4.731884e-05 3.778646e-03
4.365127e+10 -4.717672e-05 3.779562e-03 2.427015e-03 -8.711887e-03 2.427015e-03 -8.711887e-03 -4.717672e-05 3.779562e-03
4.370126e+10 -4.692343e-05 3.780289e-03 -1.447416e-03 -8.882635e-03 -1.447416e-03 -8.882635e-03 -4.692343e-05 3.780289e-03
4.375125e+10 -4.674034e-05 3.780811e-03 -5.018196e-03 -7.418252e-03 -5.018196e-03 -7.418252e-03 -4.674034e-05 3.780811e-03
4.380124e+10 -4.675635e-05 3.781253e-03 -7.631612e-03 -4.603848e-03 -7.631612e-03 -4.603848e-03 -4.675635e-05 3.781253e-03
4.385123e+10 -4.695889e-05 3.781795e-03 -8.816329e-03 -9.700361e-04 -8.816329e-03 -9.700361e-04 -4.695889e-05 3.781795e-03
4.390122e+10 -4.720535e-05 3.782541e-03 -8.368302e-03 2.807017e-03 -8.368302e-03 2.807017e-03 -4.720535e-05 3.782541e-03
4.395121e+10 -4.732515e-05 3.783450e-03 -6.385710e-03 6.031345e-03 -6.385710e-03 6.031345e-03 -4.732515e-05 3.783450e-03
4.400120e+10 -4.723938e-05 3.784368e-03 -3.247984e-03 8.115352e-03 -3.247984e-03 8.115352e-03 -4.723938e-05 3.784368e-03
4.405119e+10 -4.701415e-05 3.785136e-03 4.566934e-04 8.686827e-03 4.566934e-04 8.686827e-03 -4.701415e-05 3.785136e-03
4.410118e+10 -4.681173e-05 3.785702e-03 4.041566e-03 7.655302e-03 4.041566e-03 7.655302e-03 -4.681173e-05 3.785702e-03
4.415117e+10 -4.677538e-05 3.786156e-03 6.848551e-03 5.225970e-03 6.848551e-03 5.225970e-03 -4.677538e-05 3.786156e-03
4.420116e+10 -4.692968e-05 3.786662e-03 8.368975e-03 1.859087e-03 8.368975e-03 1.859087e-03 -4.692968e-05 3.786662e-03
4.425115e+10 -4.716560e-05 3.787346e-03 8.335677e-03 -1.817126e-03 8.335677e-03 -1.817126e-03 -4.716560e-05 3.787346e-03
4.430114e+10 -4.731916e-05 3.788204e-03 6.769801e-03 -5.123640e-03 6.769801e-03 -5.123640e-03 -4.731916e-05 3.788204e-03
4.435113e+10 -4.728700e-05 3.789113e-03 3.974119e-03 -7.455974e-03 3.974119e-03 -7.455974e-03 -4.728700e-05 3.789113e-03
4.440112e+10 -4.709740e-05 3.789912e-03 4.746313e-04 -8.394638e-03 4.746313e-04 -8.394638e-03 -4.709740e-05 3.789912e-03
4.445111e+10 -4.688803e-05 3.790523e-03 -3.078317e-03 -7.780485e-03 -3.078317e-03 -7.780485e-03 -4.688803e-05 3.790523e-03
4.450110e+10 -4.680778e-05 3.790996e-03 -6.030837e-03 -5.741463e-03 -6.030837e-03 -5.741463e-03 -4.680778e-05 3.790996e-03
4.455109e+10 -4.691255e-05 3.791480e-03 -7.845774e-03 -2.666310e-03 -7.845774e-03 -2.666310e-03 -4.691255e-05 3.791480e-03
4.460108e+10 -4.712796e-05 3.792108e-03 -8.200361e-03 8.694536e-04 -8.200361e-03 8.694536e-04 -4.712796e-05 3.792108e-03
4.465107e+10 -4.730379e-05 3.792913e-03 -7.043503e-03 4.211163e-03 -7.043503e-03 4.211163e-03 -4.730379e-05 3.792913e-03
4.470106e+10 -4.732026e-05 3.793801e-03 -4.602545e-03 6.746166e-03 -4.602545e-03 6.746166e-03 -4.732026e-05 3.793801e-03
4.475105e+10 -4.717116e-05 3.794622e-03 -1.338776e-03 8.016078e-03 -1.338776e-03 8.016078e-03 -4.717116e-05 3.794622e-03
4.480104e+10 -4.696601e-05 3.795273e-03 2.139659e-03 7.799590e-03 2.139659e-03 7.799590e-03 -4.696601e-05 3.795273e-03
4.485103e+10 -4.685138e-05 3.795774e-03 5.191015e-03 6.150873e-03 5.191015e-03 6.150873e-03 -4.685138e-05 3.795774e-03
4.490102e+10 -4.690789e-05 3.796246e-03 7.258284e-03 3.386955e-03 7.258284e-03 3.386955e-03 -4.690789e-05 3.796246e-03
4.495101e+10 -4.709508e-05 3.796828e-03 7.970808e-03 2.688244e-05 7.970808e-03 2.688244e-05 -4.709508e-05 3.796828e-03
4.500100e+10 -4.728202e-05 3.797579e-03 7.210641e-03 -3.305680e-03 7.210641e-03 -3.305680e-03 -4.728202e-05 3.797579e-03
4.505099e+10 -4.734041e-05 3.798438e-03 5.131800e-03 -5.998153e-03 5.131800e-03 -5.998153e-03 -4.734041e-05 3.798438e-03
4.510098e+10 -4.723413e-05 3.799268e-03 2.129311e-03 -7.561579e-03 2.129311e-03 -7.561579e-03 -4.723413e-05 3.799268e-03
4.515097e+10 -4.704275e-05 3.799956e-03 -1.235758e-03 -7.719354e-03 -1.235758e-03 -7.719354e-03 -4.704275e-05 3.799956e-03
4.520096e+10 -4.690375e-05 3.800487e-03 -4.341081e-03 -6.456037e-03 -4.341081e-03 -6.456037e-03 -4.690375e-05 3.800487e-03
4.525095e+10 -4.691543e-05 3.800958e-03 -6.618107e-03 -4.017670e-03 -6.618107e-03 -4.017670e-03 -4.691543e-05 3.800958e-03
4.530094e+10 -4.706902e-05 3.801502e-03 -7.656095e-03 -8.640065e-04 -7.656095e-03 -8.640065e-04 -4.706902e-05 3.801502e-03
4.535093e+10 -4.725678e-05 3.802201e-03 -7.276125e-03 2.418099e-03 -7.276125e-03 2.418099e-03 -4.725678e-05 3.802201e-03
4.540092e+10 -4.734917e-05 3.803025e-03 -5.561762e-03 5.223837e-03 -5.561762e-03 5.223837e-03 -4.734917e-05 3.803025e-03
4.545091e+10 -4.728566e-05 3.803855e-03 -2.841154e-03 7.041839e-03 -2.841154e-03 7.041839e-03 -4.728566e-05 3.803855e-03
4.550090e+10 -4.711575e-05 3.804573e-03 3.756743e-04 7.547314e-03 3.756743e-04 7.547314e-03 -4.711575e-05 3.804573e-03
4.555089e+10 -4.696230e-05 3.805137e-03 3.492367e-03 6.659978e-03 3.492367e-03 6.659978e-03 -4.696230e-05 3.805137e-03
4.560088e+10 -4.693434e-05 3.805615e-03 5.936740e-03 4.556450e-03 5.936740e-03 4.556450e-03 -4.693434e-05 3.805615e-03
4.565087e+10 -4.705122e-05 3.806131e-03 7.265769e-03 1.635303e-03 7.265769e-03 1.635303e-03 -4.705122e-05 3.806131e-03
4.570086e+10 -4.723076e-05 3.806782e-03 7.245813e-03 -1.558382e-03 7.245813e-03 -1.558382e-03 -4.723076e-05 3.806782e-03
4.575085e+10 -4.734857e-05 3.807566e-03 5.893560e-03 -4.434665e-03 5.893560e-03 -4.434665e-03 -4.734857e-05 3.807566e-03
4.580084e+10 -4.732572e-05 3.808387e-03 3.470541e-03 -6.467668e-03 3.470541e-03 -6.467668e-03 -4.732572e-05 3.808387e-03
4.585083e+10 -4.718298e-05 3.809127e-03 4.326764e-04 -7.291663e-03 4.326764e-04 -7.291663e-03 -4.718298e-05 3.809127e-03
4.590082e+10 -4.702446e-05 3.809723e-03 -2.655446e-03 -6.766786e-03 -2.655446e-03 -6.766786e-03 -4.702446e-05 3.809723e-03
4.595081e+10 -4.696331e-05 3.810215e-03 -5.225444e-03 -5.002573e-03 -5.225444e-03 -5.002573e-03 -4.696331e-05 3.810215e-03
4.600080e+10 -4.704255e-05 3.810713e-03 -6.809699e-03 -2.335416e-03 -6.809699e-03 -2.335416e-03 -4.704255e-05 3.810713e-03
4.605079e+10 -4.720634e-05 3.811321e-03 -7.126380e-03 7.354904e-04 -7.126380e-03 7.354904e-04 -4.720634e-05 3.811321e-03
4.610078e+10 -4.734085e-05 3.812063e-03 -6.129477e-03 3.641519e-03 -6.129477e-03 3.641519e-03 -4.734085e-05 3.812063e-03
4.615077e+10 -4.735482e-05 3.812867e-03 -4.014990e-03 5.849849e-03 -4.014990e-03 5.849849e-03 -4.735482e-05 3.812867e-03
4.620076e+10 -4.724292e-05 3.813621e-03 -1.182546e-03 6.961102e-03 -1.182546e-03 6.961102e-03 -4.724292e-05 3.813621e-03
4.625075e+10 -4.708778e-05 3.814248e-03 1.840048e-03 6.781501e-03 1.840048e-03 6.781501e-03 -4.708778e-05 3.814248e-03
4.630074e+10 -4.700069e-05 3.814759e-03 4.495111e-03 5.356525e-03 4.495111e-03 5.356525e-03 -4.700069e-05 3.814759e-03
4.635073e+10 -4.704330e-05 3.815247e-03 6.297926e-03 2.960234e-03 6.297926e-03 2.960234e-03 -4.704330e-05 3.815247e-03
4.640072e+10 -4.718552e-05 3.815818e-03 6.925177e-03 4.266661e-05 6.925177e-03 4.266661e-05 -4.718552e-05 3.815818e-03
4.645071e+10 -4.732827e-05 3.816517e-03 6.272850e-03 -2.854615e-03 6.272850e-03 -2.854615e-03 -4.732827e-05 3.816517e-03
4.650070e+10 -4.737394e-05 3.817299e-03 4.473243e-03 -5.199002e-03 4.473243e-03 -5.199002e-03 -4.737394e-05 3.817299e-03
4.655069e+10 -4.729459e-05 3.818059e-03 1.868363e-03 -6.564697e-03 1.868363e-03 -6.564697e-03 -4.729459e-05 3.818059e-03
4.660068e+10 -4.715007e-05 3.818711e-03 -1.054994e-03 -6.709986e-03 -1.054994e-03 -6.709986e-03 -4.715007e-05 3.818711e-03
4.665067e+10 -4.704464e-05 3.819244e-03 -3.756158e-03 -5.619916e-03 -3.756158e-03 -5.619916e-03 -4.704464e-05 3.819244e-03
4.670066e+10 -4.705326e-05 3.819730e-03 -5.740530e-03 -3.506857e-03 -5.740530e-03 -3.506857e-03 -4.705326e-05 3.819730e-03
4.675065e+10 -4.716986e-05 3.820272e-03 -6.650098e-03 -7.692591e-04 -6.650098e-03 -7.692591e-04 -4.716986e-05 3.820272e-03
4.680064e+10 -4.731304e-05 3.820931e-03 -6.327953e-03 2.083419e-03 -6.327953e-03 2.083419e-03 -4.731304e-05 3.820931e-03
4.685063e+10 -4.738439e-05 3.821683e-03 -4.845209e-03 4.525464e-03 -4.845209e-03 4.525464e-03 -4.738439e-05 3.821683e-03
4.690062e+10 -4.733750e-05 3.822443e-03 -2.485724e-03 6.111746e-03 -2.485724e-03 6.111746e-03 -4.733750e-05 3.822443e-03
4.695061e+10 -4.720942e-05 3.823116e-03 3.081444e-04 6.558797e-03 3.081444e-04 6.558797e-03 -4.720942e-05 3.823116e-03
4.700060e+10 -4.709318e-05 3.823673e-03 3.018423e-03 5.795382e-03 3.018423e-03 5.795382e-03 -4.709318e-05 3.823673e-03
4.705059e+10 -4.707179e-05 3.824163e-03 5.147501e-03 3.973557e-03 5.147501e-03 3.973557e-03 -4.707179e-05 3.824163e-03
4.710058e+10 -4.716045e-05 3.824683e-03 6.309443e-03 1.438552e-03 6.309443e-03 1.438552e-03 -4.716045e-05 3.824683e-03
4.715057e+10 -4.729722e-05 3.825303e-03 6.299888e-03 -1.336578e-03 6.299888e-03 -1.336578e-03 -4.729722e-05 3.825303e-03
4.720056e+10 -4.738772e-05 3.826025e-03 5.131879e-03 -3.839177e-03 5.131879e-03 -3.839177e-03 -4.738772e-05 3.826025e-03
4.725055e+10 -4.737166e-05 3.826775e-03 3.031373e-03 -5.611644e-03 3.031373e-03 -5.611644e-03 -4.737166e-05 3.826775e-03
4.730054e+10 -4.726430e-05 3.827464e-03 3.936335e-04 -6.335058e-03 3.936335e-04 -6.335058e-03 -4.726430e-05 3.827464e-03
4.735053e+10 -4.714437e-05 3.828044e-03 -2.291087e-03 -5.886490e-03 -2.291087e-03 -5.886490e-03 -4.714437e-05 3.828044e-03
4.740052e+10 -4.709788e-05 3.828545e-03 -4.528618e-03 -4.359719e-03 -4.528618e-03 -4.359719e-03 -4.709788e-05 3.828545e-03
4.745051e+10 -4.715793e-05 3.829049e-03 -5.911788e-03 -2.045903e-03 -5.911788e-03 -2.045903e-03 -4.715793e-05 3.829049e-03
4.750050e+10 -4.728260e-05 3.829635e-03 -6.194460e-03 6.218694e-04 -6.194460e-03 6.218694e-04 -4.728260e-05 3.829635e-03
4.755049e+10 -4.738562e-05 3.830324e-03 -5.335251e-03 3.149589e-03 -5.335251e-03 3.149589e-03 -4.738562e-05 3.830324e-03
4.760048e+10 -4.739746e-05 3.831060e-03 -3.503164e-03 5.073758e-03 -3.503164e-03 5.073758e-03 -4.739746e-05 3.831060e-03
4.765047e+10 -4.731358e-05 3.831759e-03 -1.044488e-03 6.046336e-03 -1.044488e-03 6.046336e-03 -4.731358e-05 3.831759e-03
4.770046e+10 -4.719635e-05 3.832360e-03 1.582595e-03 5.897628e-03 1.582595e-03 5.897628e-03 -4.719635e-05 3.832360e-03
4.775045e+10 -4.713028e-05 3.832874e-03 3.893344e-03 4.665779e-03 3.893344e-03 4.665779e-03 -4.713028e-05 3.832874e-03
4.780044e+10 -4.716253e-05 3.833369e-03 5.465861e-03 2.587753e-03 5.465861e-03 2.587753e-03 -4.716253e-05 3.833369e-03
4.785043e+10 -4.727071e-05 3.833927e-03 6.018066e-03 5.384563e-05 6.018066e-03 5.384563e-05 -4.727071e-05 3.833927e-03
4.790042e+10 -4.737983e-05 3.834582e-03 5.458233e-03 -2.465571e-03 5.458233e-03 -2.465571e-03 -4.737983e-05 3.834582e-03
4.795041e+10 -4.741564e-05 3.835300e-03 3.900020e-03 -4.507317e-03 3.900020e-03 -4.507317e-03 -4.741564e-05 3.835300e-03
4.800040e+10 -4.735650e-05 3.836001e-03 1.639591e-03 -5.700513e-03 1.639591e-03 -5.700513e-03 -4.735650e-05 3.836001e-03
4.805039e+10 -4.724746e-05 3.836621e-03 -9.006025e-04 -5.833899e-03 -9.006025e-04 -5.833899e-03 -4.724746e-05 3.836621e-03
4.810038e+10 -4.716758e-05 3.837151e-03 -3.250726e-03 -4.893145e-03 -3.250726e-03 -4.893145e-03 -4.716758e-05 3.837151e-03
4.815037e+10 -4.717406e-05 3.837644e-03 -4.980422e-03 -3.061595e-03 -4.980422e-03 -3.061595e-03 -4.717406e-05 3.837644e-03
4.820036e+10 -4.726270e-05 3.838178e-03 -5.777571e-03 -6.846426e-04 -5.777571e-03 -6.846426e-04 -4.726270e-05 3.838178e-03
4.825035e+10 -4.737201e-05 3.838801e-03 -5.504551e-03 1.795342e-03 -5.504551e-03 1.795342e-03 -4.737201e-05 3.838801e-03
4.830034e+10 -4.742721e-05 3.839495e-03 -4.221869e-03 3.921299e-03 -4.221869e-03 3.921299e-03 -4.742721e-05 3.839495e-03
4.835033e+10 -4.739273e-05 3.840195e-03 -2.175125e-03 5.305671e-03 -2.175125e-03 5.305671e-03 -4.739273e-05 3.840195e-03
4.840032e+10 -4.729627e-05 3.840830e-03 2.519322e-04 5.701007e-03 2.519322e-04 5.701007e-03 -4.729627e-05 3.840830e-03
4.845031e+10 -4.720830e-05 3.841376e-03 2.609309e-03 5.044121e-03 2.609309e-03 5.044121e-03 -4.720830e-05 3.841376e-03
4.850030e+10 -4.719204e-05 3.841871e-03 4.464152e-03 3.465938e-03 4.464152e-03 3.465938e-03 -4.719204e-05 3.841871e-03
4.855029e+10 -4.725942e-05 3.842387e-03 5.480192e-03 1.265549e-03 5.480192e-03 1.265549e-03 -4.725942e-05 3.842387e-03
4.860028e+10 -4.736373e-05 3.842980e-03 5.478646e-03 -1.146410e-03 5.478646e-03 -1.146410e-03 -4.736373e-05 3.842980e-03
4.865027e+10 -4.743336e-05 3.843650e-03 4.469588e-03 -3.324341e-03 4.469588e-03 -3.324341e-03 -4.743336e-05 3.843650e-03
4.870026e+10 -4.742225e-05 3.844342e-03 2.648275e-03 -4.869976e-03 2.648275e-03 -4.869976e-03 -4.742225e-05 3.844342e-03
4.875025e+10 -4.734160e-05 3.844987e-03 3.574587e-04 -5.505152e-03 3.574587e-04 -5.505152e-03 -4.734160e-05 3.844987e-03
4.880024e+10 -4.725095e-05 3.845549e-03 -1.977062e-03 -5.121816e-03 -1.977062e-03 -5.121816e-03 -4.725095e-05 3.845549e-03
4.885023e+10 -4.721570e-05 3.846051e-03 -3.925549e-03 -3.800260e-03 -3.925549e-03 -3.800260e-03 -4.721570e-05 3.846051e-03
4.890022e+10 -4.726133e-05 3.846555e-03 -5.133385e-03 -1.792541e-03 -5.133385e-03 -1.792541e-03 -4.726133e-05 3.846555e-03
4.895021e+10 -4.735635e-05 3.847121e-03 -5.385572e-03 5.255217e-04 -5.385572e-03 5.255217e-04 -4.735635e-05 3.847121e-03
4.900020e+10 -4.743536e-05 3.847764e-03 -4.644922e-03 2.724651e-03 -4.644922e-03 2.724651e-03 -4.743536e-05 3.847764e-03
4.905019e+10 -4.744539e-05 3.848444e-03 -3.057186e-03 4.401570e-03 -3.057186e-03 4.401570e-03 -4.744539e-05 3.848444e-03
4.910018e+10 -4.738261e-05 3.849095e-03 -9.224953e-04 5.252912e-03 -9.224953e-04 5.252912e-03 -4.738261e-05 3.849095e-03
4.915017e+10 -4.729412e-05 3.849673e-03 1.361321e-03 5.130052e-03 1.361321e-03 5.130052e-03 -4.729412e-05 3.849673e-03
4.920016e+10 -4.724409e-05 3.850183e-03 3.372833e-03 4.064951e-03 3.372833e-03 4.064951e-03 -4.724409e-05 3.850183e-03
4.925015e+10 -4.726860e-05 3.850680e-03 4.744740e-03 2.262537e-03 4.744740e-03 2.262537e-03 -4.726860e-05 3.850680e-03
4.930014e+10 -4.735101e-05 3.851223e-03 5.230895e-03 6.136623e-05 5.230895e-03 6.136623e-05 -4.735101e-05 3.851223e-03
4.935013e+10 -4.743454e-05 3.851839e-03 4.750409e-03 -2.129933e-03 4.750409e-03 -2.129933e-03 -4.743454e-05 3.851839e-03
4.940012e+10 -4.746270e-05 3.852504e-03 3.400933e-03 -3.908473e-03 3.400933e-03 -3.908473e-03 -4.746270e-05 3.852504e-03
4.945011e+10 -4.741874e-05 3.853156e-03 1.438991e-03 -4.951145e-03 1.438991e-03 -4.951145e-03 -4.741874e-05 3.853156e-03
4.950010e+10 -4.733656e-05 3.853747e-03 -7.687295e-04 -5.073273e-03 -7.687295e-04 -5.073273e-03 -4.733656e-05 3.853747e-03
4.955009e+10 -4.727613e-05 3.854268e-03 -2.813863e-03 -4.261245e-03 -2.813863e-03 -4.261245e-03 -4.727613e-05 3.854268e-03
4.960008e+10 -4.728110e-05 3.854762e-03 -4.321870e-03 -2.673370e-03 -4.321870e-03 -2.673370e-03 -4.728110e-05 3.854762e-03
4.965007e+10 -4.734860e-05 3.855286e-03 -5.020587e-03 -6.091149e-04 -5.020587e-03 -6.091149e-04 -4.734860e-05 3.855286e-03
4.970006e+10 -4.743217e-05 3.855877e-03 -4.789296e-03 1.547323e-03 -4.789296e-03 1.547323e-03 -4.743217e-05 3.855877e-03
4.975005e+10 -4.747497e-05 3.856523e-03 -3.679467e-03 3.398486e-03 -3.679467e-03 3.398486e-03 -4.747497e-05 3.856523e-03
4.980004e+10 -4.744973e-05 3.857172e-03 -1.903640e-03 4.606877e-03 -1.903640e-03 4.606877e-03 -4.744973e-05 3.857172e-03
4.985003e+10 -4.737717e-05 3.857773e-03 2.052101e-04 4.956445e-03 2.052101e-04 4.956445e-03 -4.737717e-05 3.857773e-03
4.990002e+10 -4.731070e-05 3.858306e-03 2.256063e-03 4.391155e-03 2.256063e-03 4.391155e-03 -4.731070e-05 3.858306e-03
4.995001e+10 -4.729843e-05 3.858800e-03 3.872320e-03 3.023753e-03 3.872320e-03 3.023753e-03 -4.729843e-05 3.858800e-03
5.000000e+10 -4.734975e-05 3.859309e-03 4.760926e-03 1.113412e-03 4.760926e-03 1.113412e-03 -4.734975e-05 3.859309e-03
