! Touchstone v1.0 generado por exportar_touchstone.py
! Linea de transmision dispersiva (skin + dielectrico)
# Hz S RI R 50
1.000000e+07 1.578103e-02 -1.269924e-03 9.806225e-01 -7.934887e-02 9.806225e-01 -7.934887e-02 1.578103e-02 -1.269924e-03
5.999000e+07 2.820532e-02 -1.463250e-02 8.539107e-01 -4.494487e-01 8.539107e-01 -4.494487e-01 2.820532e-02 -1.463250e-02
1.099800e+08 2.423470e-02 -2.890904e-02 6.010395e-01 -7.396334e-01 6.010395e-01 -7.396334e-01 2.423470e-02 -2.890904e-02
1.599700e+08 1.145169e-02 -3.609239e-02 2.592968e-01 -9.070444e-01 2.592968e-01 -9.070444e-01 1.145169e-02 -3.609239e-02
2.099600e+08 -2.572392e-03 -3.340126e-02 -1.169497e-01 -9.275727e-01 -1.169497e-01 -9.275727e-01 -2.572392e-03 -3.340126e-02
2.599500e+08 -1.120429e-02 -2.326702e-02 -4.680828e-01 -8.004735e-01 -4.680828e-01 -8.004735e-01 -1.120429e-02 -2.326702e-02
3.099400e+08 -1.147465e-02 -1.141361e-02 -7.392446e-01 -5.482076e-01 -7.392446e-01 -5.482076e-01 -1.147465e-02 -1.141361e-02
3.599300e+08 -4.984818e-03 -3.594470e-03 -8.889328e-01 -2.124642e-01 -8.889328e-01 -2.124642e-01 -4.984818e-03 -3.594470e-03
4.099200e+08 3.513321e-03 -2.687680e-03 -8.951945e-01 1.526140e-01 -8.951945e-01 1.526140e-01 3.513321e-03 -2.687680e-03
4.599100e+08 8.968247e-03 -7.584147e-03 -7.587839e-01 4.889016e-01 -7.587839e-01 4.889016e-01 8.968247e-03 -7.584147e-03
5.099000e+08 8.716132e-03 -1.427133e-02 -5.029276e-01 7.433349e-01 -5.029276e-01 7.433349e-01 8.716132e-03 -1.427133e-02
5.598900e+08 3.611559e-03 -1.833941e-02 -1.696131e-01 8.762716e-01 -1.696131e-01 8.762716e-01 3.611559e-03 -1.833941e-02
6.098800e+08 -2.861548e-03 -1.743774e-02 1.871873e-01 8.677898e-01 1.871873e-01 8.677898e-01 -2.861548e-03 -1.743774e-02
6.598700e+08 -6.830350e-03 -1.234629e-02 5.102918e-01 7.207579e-01 5.102918e-01 7.207579e-01 -6.830350e-03 -1.234629e-02
7.098600e+08 -6.261856e-03 -6.196220e-03 7.485325e-01 4.601151e-01 7.485325e-01 4.601151e-01 -6.261856e-03 -6.196220e-03
7.598500e+08 -1.936756e-03 -2.446121e-03 8.648288e-01 1.285917e-01 8.648288e-01 1.285917e-01 -1.936756e-03 -2.446121e-03
8.098400e+08 3.263693e-03 -2.864942e-03 8.418593e-01 -2.202859e-01 8.418593e-01 -2.202859e-01 3.263693e-03 -2.864942e-03
8.598300e+08 6.204868e-03 -6.660425e-03 6.845771e-01 -5.307402e-01 6.845771e-01 -5.307402e-01 6.204868e-03 -6.660425e-03
9.098200e+08 5.335017e-03 -1.115146e-02 4.192603e-01 -7.535658e-01 4.192603e-01 -7.535658e-01 5.335017e-03 -1.115146e-02
9.598100e+08 1.460916e-03 -1.347748e-02 8.921950e-02 -8.539147e-01 8.921950e-02 -8.539147e-01 1.460916e-03 -1.347748e-02
1.009800e+09 -2.904875e-03 -1.228210e-02 -2.522273e-01 -8.167944e-01 -2.522273e-01 -8.167944e-01 -2.904875e-03 -1.228210e-02
1.059790e+09 -5.143839e-03 -8.395822e-03 -5.503897e-01 -6.493341e-01 -5.503897e-01 -6.493341e-01 -5.143839e-03 -8.395822e-03
1.109780e+09 -4.079056e-03 -4.189993e-03 -7.579918e-01 -3.794332e-01 -7.579918e-01 -3.794332e-01 -4.079056e-03 -4.189993e-03
1.159770e+09 -5.691444e-04 -2.071777e-03 -8.426436e-01 -5.108496e-02 -8.426436e-01 -5.108496e-02 -5.691444e-04 -2.071777e-03
1.209760e+09 3.134385e-03 -3.059778e-03 -7.918367e-01 2.827843e-01 -7.918367e-01 2.827843e-01 3.134385e-03 -3.059778e-03
1.259750e+09 4.808146e-03 -6.270050e-03 -6.147547e-01 5.687892e-01 -6.147547e-01 5.687892e-01 4.808146e-03 -6.270050e-03
1.309740e+09 3.572646e-03 -9.556916e-03 -3.406666e-01 7.615720e-01 -3.406666e-01 7.615720e-01 3.572646e-03 -9.556916e-03
1.359730e+09 3.342049e-04 -1.086183e-02 -1.414302e-02 8.309933e-01 -1.414302e-02 8.309933e-01 3.342049e-04 -1.086183e-02
1.409720e+09 -2.857777e-03 -9.432470e-03 3.121716e-01 7.668732e-01 3.121716e-01 7.668732e-01 -2.857777e-03 -9.432470e-03
1.459710e+09 -4.096522e-03 -6.196642e-03 5.860642e-01 5.804871e-01 5.860642e-01 5.804871e-01 -4.096522e-03 -6.196642e-03
1.509700e+09 -2.747344e-03 -3.115652e-03 7.641198e-01 3.025806e-01 7.641198e-01 3.025806e-01 -2.747344e-03 -3.115652e-03
1.559690e+09 2.421187e-04 -1.957307e-03 8.185816e-01 -2.171850e-02 8.185816e-01 -2.171850e-02 2.421187e-04 -1.957307e-03
1.609680e+09 2.991281e-03 -3.249627e-03 7.416390e-01 -3.402159e-01 7.416390e-01 -3.402159e-01 2.991281e-03 -3.249627e-03
1.659670e+09 3.858864e-03 -6.028232e-03 5.465219e-01 -6.020118e-01 5.465219e-01 -6.020118e-01 3.858864e-03 -6.028232e-03
1.709660e+09 2.413491e-03 -8.487597e-03 2.652616e-01 -7.656064e-01 2.652616e-01 -7.656064e-01 2.413491e-03 -8.487597e-03
1.759650e+09 -3.664330e-04 -9.103647e-03 -5.653416e-02 -8.054826e-01 -5.653416e-02 -8.054826e-01 -3.664330e-04 -9.103647e-03
1.809640e+09 -2.746561e-03 -7.534546e-03 -3.670686e-01 -7.161036e-01 -3.670686e-01 -7.161036e-01 -2.746561e-03 -7.534546e-03
1.859630e+09 -3.313146e-03 -4.770686e-03 -6.167068e-01 -5.126696e-01 -6.167068e-01 -5.126696e-01 -3.313146e-03 -4.770686e-03
1.909620e+09 -1.807676e-03 -2.478528e-03 -7.659140e-01 -2.285260e-01 -7.659140e-01 -2.285260e-01 -1.807676e-03 -2.478528e-03
1.959610e+09 7.697227e-04 -1.968482e-03 -7.914960e-01 9.031144e-02 -7.914960e-01 9.031144e-02 7.697227e-04 -1.968482e-03
2.009600e+09 2.817093e-03 -3.422554e-03 -6.901782e-01 3.925948e-01 -6.901782e-01 3.925948e-01 2.817093e-03 -3.422554e-03
2.059590e+09 3.120335e-03 -5.833348e-03 -4.789952e-01 6.300525e-01 -4.789952e-01 6.300525e-01 3.120335e-03 -5.833348e-03
2.109580e+09 1.567772e-03 -7.660573e-03 -1.924532e-01 7.650812e-01 -1.924532e-01 7.650812e-01 1.567772e-03 -7.660573e-03
2.159570e+09 -8.281267e-04 -7.780938e-03 1.230855e-01 7.767064e-01 1.230855e-01 7.767064e-01 -8.281267e-04 -7.780938e-03
2.209560e+09 -2.586837e-03 -6.148297e-03 4.169029e-01 6.638514e-01 4.169029e-01 6.638514e-01 -2.586837e-03 -6.148297e-03
2.259550e+09 -2.671540e-03 -3.778198e-03 6.420875e-01 4.453845e-01 6.420875e-01 4.453845e-01 -2.671540e-03 -3.778198e-03
2.309540e+09 -1.097131e-03 -2.093054e-03 7.630235e-01 1.569567e-01 7.630235e-01 1.569567e-01 -1.097131e-03 -2.093054e-03
2.359530e+09 1.119776e-03 -2.047773e-03 7.610063e-01 -1.548196e-01 7.610063e-01 -1.548196e-01 1.119776e-03 -2.047773e-03
2.409520e+09 2.612956e-03 -3.571156e-03 6.371158e-01 -4.398899e-01 6.371158e-01 -4.398899e-01 2.612956e-03 -3.571156e-03
2.459510e+09 2.504810e-03 -5.647443e-03 4.119239e-01 -6.527722e-01 4.119239e-01 -6.527722e-01 2.504810e-03 -5.647443e-03
2.509500e+09 9.185648e-04 -6.964904e-03 1.220993e-01 -7.598041e-01 1.220993e-01 -7.598041e-01 9.185648e-04 -6.964904e-03
2.559490e+09 -1.132638e-03 -6.719532e-03 -1.855488e-01 -7.444722e-01 -1.855488e-01 -7.444722e-01 -1.132638e-03 -6.719532e-03
2.609480e+09 -2.390456e-03 -5.083012e-03 -4.616330e-01 -6.099656e-01 -4.616330e-01 -6.099656e-01 -2.390456e-03 -5.083012e-03
2.659470e+09 -2.121333e-03 -3.064135e-03 -6.621224e-01 -3.785444e-01 -6.621224e-01 -3.785444e-01 -2.121333e-03 -3.064135e-03
2.709460e+09 -5.419354e-04 -1.868909e-03 -7.553615e-01 -8.784993e-02 -7.553615e-01 -8.784993e-02 -5.419354e-04 -1.868909e-03
2.759450e+09 1.344953e-03 -2.163799e-03 -7.270532e-01 2.152183e-01 -7.270532e-01 2.152183e-01 1.344953e-03 -2.163799e-03
2.809440e+09 2.384331e-03 -3.690702e-03 -5.824354e-01 4.820561e-01 -5.824354e-01 4.820561e-01 2.384331e-03 -3.690702e-03
2.859430e+09 1.973474e-03 -5.454331e-03 -3.453344e-01 6.701329e-01 -3.453344e-01 6.701329e-01 1.973474e-03 -5.454331e-03
2.909420e+09 4.087129e-04 -6.349515e-03 -5.425564e-02 7.497668e-01 -5.425564e-02 7.497668e-01 4.087129e-04 -6.349515e-03
2.959410e+09 -1.323583e-03 -5.834476e-03 2.438608e-01 7.088142e-01 2.438608e-01 7.088142e-01 -1.323583e-03 -5.834476e-03
3.009400e+09 -2.167274e-03 -4.240937e-03 5.012130e-01 5.545228e-01 5.012130e-01 5.545228e-01 -2.167274e-03 -4.240937e-03
3.059390e+09 -1.639014e-03 -2.544914e-03 6.768061e-01 3.122561e-01 6.768061e-01 3.122561e-01 -1.639014e-03 -2.544914e-03
3.109380e+09 -1.031120e-04 -1.754358e-03 7.429778e-01 2.131900e-02 7.429778e-01 2.131900e-02 -1.031120e-04 -1.754358e-03
3.159370e+09 1.476082e-03 -2.296868e-03 6.897420e-01 -2.714165e-01 6.897420e-01 -2.714165e-01 1.476082e-03 -2.296868e-03
3.209360e+09 2.137735e-03 -3.778342e-03 5.262848e-01 -5.190508e-01 5.262848e-01 -5.190508e-01 2.137735e-03 -3.778342e-03
3.259350e+09 1.507353e-03 -5.247238e-03 2.793921e-01 -6.821589e-01 2.793921e-01 -6.821589e-01 1.507353e-03 -5.247238e-03
3.309340e+09 6.298569e-06 -5.788896e-03 -1.092594e-02 -7.350655e-01 -1.092594e-02 -7.350655e-01 6.298569e-06 -5.788896e-03
3.359330e+09 -1.427836e-03 -5.079652e-03 -2.979143e-01 -6.698912e-01 -2.979143e-01 -6.698912e-01 -1.427836e-03 -5.079652e-03
3.409320e+09 -1.925856e-03 -3.565787e-03 -5.356060e-01 -4.977227e-01 -5.356060e-01 -4.977227e-01 -1.925856e-03 -3.565787e-03
3.459310e+09 -1.212786e-03 -2.169796e-03 -6.861869e-01 -2.467278e-01 -6.861869e-01 -2.467278e-01 -1.212786e-03 -2.169796e-03
3.509300e+09 2.425087e-04 -1.716200e-03 -7.260051e-01 4.245581e-02 -7.260051e-01 4.245581e-02 2.425087e-04 -1.716200e-03
3.559290e+09 1.533624e-03 -2.433562e-03 -6.492747e-01 3.232965e-01 -6.492747e-01 3.232965e-01 1.533624e-03 -2.433562e-03
3.609280e+09 1.879753e-03 -3.832683e-03 -4.689045e-01 5.508451e-01 -4.689045e-01 5.508451e-01 1.879753e-03 -3.832683e-03
3.659270e+09 1.096545e-03 -5.024121e-03 -2.143371e-01 6.889208e-01 -2.143371e-01 6.889208e-01 1.096545e-03 -5.024121e-03
3.709260e+09 -3.085485e-04 -5.269923e-03 7.324669e-02 7.158643e-01 7.324669e-02 7.158643e-01 -3.085485e-04 -5.269923e-03
3.759250e+09 -1.463928e-03 -4.427996e-03 3.475877e-01 6.279386e-01 3.475877e-01 6.279386e-01 -1.463928e-03 -4.427996e-03
3.809240e+09 -1.673793e-03 -3.022070e-03 5.647919e-01 4.398362e-01 5.647919e-01 4.398362e-01 -1.673793e-03 -3.022070e-03
3.859230e+09 -8.363996e-04 -1.905021e-03 6.903545e-01 1.822230e-01 6.903545e-01 1.822230e-01 -8.363996e-04 -1.905021e-03
3.909220e+09 5.101976e-04 -1.731310e-03 7.046337e-01 -1.032629e-01 7.046337e-01 -1.032629e-01 5.101976e-04 -1.731310e-03
3.959210e+09 1.532568e-03 -2.564316e-03 6.059144e-01 -3.707360e-01 6.059144e-01 -3.707360e-01 1.532568e-03 -2.564316e-03
4.009200e+09 1.616664e-03 -3.853519e-03 4.105901e-01 -5.774295e-01 4.105901e-01 -5.774295e-01 1.616664e-03 -3.853519e-03
4.059190e+09 7.355667e-04 -4.785561e-03 1.504497e-01 -6.905274e-01 1.504497e-01 -6.905274e-01 7.355667e-04 -4.785561e-03
4.109180e+09 -5.494707e-04 -4.785971e-03 -1.324881e-01 -6.923762e-01 -1.324881e-01 -6.923762e-01 -5.494707e-04 -4.785971e-03
4.159170e+09 -1.445819e-03 -3.862549e-03 -3.927614e-01 -5.832420e-01 -3.927614e-01 -5.832420e-01 -1.445819e-03 -3.862549e-03
4.209160e+09 -1.417839e-03 -2.585602e-03 -5.887725e-01 -3.811773e-01 -5.887725e-01 -3.811773e-01 -1.417839e-03 -2.585602e-03
4.259150e+09 -5.063183e-04 -1.726403e-03 -6.894349e-01 -1.190336e-01 -6.894349e-01 -1.190336e-01 -5.063183e-04 -1.726403e-03
4.309140e+09 7.110244e-04 -1.782608e-03 -6.790965e-01 1.608801e-01 -6.790965e-01 1.608801e-01 7.110244e-04 -1.782608e-03
4.359130e+09 1.484756e-03 -2.682215e-03 -5.599658e-01 4.136204e-01 -5.599658e-01 4.136204e-01 1.484756e-03 -2.682215e-03
4.409120e+09 1.354275e-03 -3.841631e-03 -3.516701e-01 5.988178e-01 -3.516701e-01 5.988178e-01 1.354275e-03 -3.841631e-03
4.459110e+09 4.211129e-04 -4.533681e-03 -8.802966e-02 6.871214e-01 -8.802966e-02 6.871214e-01 4.211129e-04 -4.533681e-03
4.509100e+09 -7.267163e-04 -4.333973e-03 1.884279e-01 6.648521e-01 1.884279e-01 6.648521e-01 -7.267163e-04 -4.333973e-03
4.559090e+09 -1.384742e-03 -3.371984e-03 4.333282e-01 5.361216e-01 4.333282e-01 5.361216e-01 -1.384742e-03 -3.371984e-03
4.609080e+09 -1.163985e-03 -2.238726e-03 6.075742e-01 3.220853e-01 6.075742e-01 3.220853e-01 -1.163985e-03 -2.238726e-03
4.659070e+09 -2.202808e-04 -1.615565e-03 6.835861e-01 5.746404e-02 6.835861e-01 5.746404e-02 -2.202808e-04 -1.615565e-03
4.709060e+09 8.537293e-04 -1.856962e-03 6.496598e-01 -2.150874e-01 6.496598e-01 -2.150874e-01 8.537293e-04 -1.856962e-03
4.759050e+09 1.400060e-03 -2.782315e-03 5.117624e-01 -4.518506e-01 5.117624e-01 -4.518506e-01 1.400060e-03 -2.782315e-03
4.809040e+09 1.097827e-03 -3.798624e-03 2.924923e-01 -6.150496e-01 2.924923e-01 -6.150496e-01 1.097827e-03 -3.798624e-03
4.859030e+09 1.508899e-04 -4.271515e-03 2.738323e-02 -6.788761e-01 2.738323e-02 -6.788761e-01 1.508899e-04 -4.271515e-03
4.909020e+09 -8.486119e-04 -3.912818e-03 -2.408510e-01 -6.335725e-01 -2.408510e-01 -6.335725e-01 -8.486119e-04 -3.912818e-03
4.959010e+09 -1.290169e-03 -2.948196e-03 -4.691990e-01 -4.869216e-01 -4.691990e-01 -4.869216e-01 -1.290169e-03 -2.948196e-03
5.009000e+09 -9.174738e-04 -1.967737e-03 -6.212498e-01 -2.629134e-01 -6.212498e-01 -2.629134e-01 -9.174738e-04 -1.967737e-03
5.058990e+09 2.346115e-05 -1.557890e-03 -6.729957e-01 2.179707e-03 -6.729957e-01 2.179707e-03 2.346115e-05 -1.557890e-03
5.108980e+09 9.457195e-04 -1.944030e-03 -6.166172e-01 2.656756e-01 -6.166172e-01 2.656756e-01 9.457195e-04 -1.944030e-03
5.158970e+09 1.287007e-03 -2.861227e-03 -4.616574e-01 4.853485e-01 -4.616574e-01 4.853485e-01 1.287007e-03 -2.861227e-03
5.208960e+09 8.519355e-04 -3.726778e-03 -2.334138e-01 6.261913e-01 -2.334138e-01 6.261913e-01 8.519355e-04 -3.726778e-03
5.258950e+09 -7.701587e-05 -4.002608e-03 3.118583e-02 6.659930e-01 3.118583e-02 6.659930e-01 -7.701587e-05 -4.002608e-03
5.308940e+09 -9.223599e-04 -3.522425e-03 2.895558e-01 5.988427e-01 2.895558e-01 5.988427e-01 -9.223599e-04 -3.522425e-03
5.358930e+09 -1.170323e-03 -2.584933e-03 5.003075e-01 4.360025e-01 5.003075e-01 4.360025e-01 -1.170323e-03 -2.584933e-03
5.408920e+09 -6.828127e-04 -1.761424e-03 6.298792e-01 2.040207e-01 6.298792e-01 2.040207e-01 -6.828127e-04 -1.761424e-03
5.458910e+09 2.265637e-04 -1.541356e-03 6.578783e-01 -5.959774e-02 6.578783e-01 -5.959774e-02 2.265637e-04 -1.541356e-03
5.508900e+09 9.936113e-04 -2.035569e-03 5.802843e-01 -3.124519e-01 5.802843e-01 -3.124519e-01 9.936113e-04 -2.035569e-03
5.558890e+09 1.153121e-03 -2.916844e-03 4.100177e-01 -5.140601e-01 4.100177e-01 -5.140601e-01 1.153121e-03 -2.916844e-03
5.608880e+09 6.205540e-04 -3.628913e-03 1.747940e-01 -6.323369e-01 1.747940e-01 -6.323369e-01 6.205540e-04 -3.628913e-03
5.658870e+09 -2.644872e-04 -3.730737e-03 -8.738293e-02 -6.486994e-01 -8.738293e-02 -6.486994e-01 -2.644872e-04 -3.730737e-03
5.708860e+09 -9.544743e-04 -3.163172e-03 -3.343599e-01 -5.609875e-01 -3.343599e-01 -5.609875e-01 -9.544743e-04 -3.163172e-03
5.758850e+09 -1.032460e-03 -2.276995e-03 -5.266125e-01 -3.837356e-01 -5.266125e-01 -3.837356e-01 -1.032460e-03 -2.276995e-03
5.808840e+09 -4.637738e-04 -1.610221e-03 -6.335701e-01 -1.457653e-01 -6.335701e-01 -1.457653e-01 -4.637738e-04 -1.610221e-03
5.858830e+09 3.908193e-04 -1.555844e-03 -6.384731e-01 1.145019e-01 -6.384731e-01 1.145019e-01 3.908193e-04 -1.555844e-03
5.908820e+09 1.003524e-03 -2.125015e-03 -5.409945e-01 3.552446e-01 -5.409945e-01 3.552446e-01 1.003524e-03 -2.125015e-03
5.958810e+09 1.005095e-03 -2.948134e-03 -3.572178e-01 5.379575e-01 -3.572178e-01 5.379575e-01 1.005095e-03 -2.948134e-03
6.008800e+09 4.069537e-04 -3.508267e-03 -1.169890e-01 6.336074e-01 -1.169890e-01 6.336074e-01 4.069537e-04 -3.508267e-03
6.058790e+09 -4.135648e-04 -3.459709e-03 1.409275e-01 6.272464e-01 1.409275e-01 6.272464e-01 -4.135648e-04 -3.459709e-03
6.108780e+09 -9.510161e-04 -2.835543e-03 3.751029e-01 5.203480e-01 3.751029e-01 5.203480e-01 -9.510161e-04 -2.835543e-03
6.158770e+09 -8.830238e-04 -2.019753e-03 5.481000e-01 3.304977e-01 5.481000e-01 3.304977e-01 -8.830238e-04 -2.019753e-03
6.208760e+09 -2.634011e-04 -1.505706e-03 6.324568e-01 8.849987e-02 6.324568e-01 8.849987e-02 -2.634011e-04 -1.505706e-03
6.258750e+09 5.182722e-04 -1.592720e-03 6.150421e-01 -1.666199e-01 6.150421e-01 -1.666199e-01 5.182722e-04 -1.592720e-03
6.308740e+09 9.812315e-04 -2.207197e-03 4.990955e-01 -3.939053e-01 4.990955e-01 -3.939053e-01 9.812315e-04 -2.207197e-03
6.358730e+09 8.488948e-04 -2.954977e-03 3.036359e-01 -5.570405e-01 3.036359e-01 -5.570405e-01 8.488948e-04 -2.954977e-03
6.408720e+09 2.137163e-04 -3.368369e-03 6.034694e-02 -6.301506e-01 6.034694e-02 -6.301506e-01 2.137163e-04 -3.368369e-03
6.458710e+09 -5.265387e-04 -3.193210e-03 -1.915566e-01 -6.019062e-01 -1.915566e-01 -6.019062e-01 -5.265387e-04 -3.193210e-03
6.508700e+09 -9.177098e-04 -2.539904e-03 -4.116495e-01 -4.772778e-01 -4.116495e-01 -4.772778e-01 -9.177098e-04 -2.539904e-03
6.558690e+09 -7.277257e-04 -1.808865e-03 -5.647837e-01 -2.766671e-01 -5.647837e-01 -2.766671e-01 -7.277257e-04 -1.808865e-03
6.608680e+09 -8.402246e-05 -1.440302e-03 -6.267000e-01 -3.256738e-02 -6.267000e-01 -3.256738e-02 -8.402246e-05 -1.440302e-03
6.658670e+09 6.112645e-04 -1.644577e-03 -5.878674e-01 2.156991e-01 -5.878674e-01 2.156991e-01 6.112645e-04 -1.644577e-03
6.708660e+09 9.322268e-04 -2.278144e-03 -4.549459e-01 4.283120e-01 -4.549459e-01 4.283120e-01 9.322268e-04 -2.278144e-03
6.758650e+09 6.898008e-04 -2.938025e-03 -2.496499e-01 5.713369e-01 -2.496499e-01 5.713369e-01 6.898008e-04 -2.938025e-03
6.808640e+09 4.274110e-05 -3.212930e-03 -5.204755e-03 6.221400e-01 -5.204755e-03 6.221400e-01 4.274110e-05 -3.212930e-03
6.858630e+09 -6.059785e-04 -2.934683e-03 2.390284e-01 5.729703e-01 2.390284e-01 5.729703e-01 -6.059785e-04 -2.934683e-03
6.908620e+09 -8.599914e-04 -2.276363e-03 4.438911e-01 4.321396e-01 4.438911e-01 4.321396e-01 -8.599914e-04 -2.276363e-03
6.958610e+09 -5.715851e-04 -1.640110e-03 5.767056e-01 2.226203e-01 5.767056e-01 2.226203e-01 -5.715851e-04 -1.640110e-03
7.008600e+09 7.272851e-05 -1.407106e-03 6.164856e-01 -2.170236e-02 6.164856e-01 -2.170236e-02 7.272851e-05 -1.407106e-03
7.058590e+09 6.724370e-04 -1.705069e-03 5.572491e-01 -2.615087e-01 5.572491e-01 -2.615087e-01 6.724370e-04 -1.705069e-03
7.108580e+09 8.617411e-04 -2.334937e-03 4.089121e-01 -4.583698e-01 4.089121e-01 -4.583698e-01 8.617411e-04 -2.334937e-03
7.158570e+09 5.324337e-04 -2.898571e-03 1.956339e-01 -5.809029e-01 1.956339e-01 -5.809029e-01 5.324337e-04 -2.898571e-03
7.208560e+09 -1.047352e-04 -3.045733e-03 -4.811545e-02 -6.097737e-01 -4.811545e-02 -6.097737e-01 -1.047352e-04 -3.045733e-03
7.258550e+09 -6.547241e-04 -2.687241e-03 -2.831241e-01 -5.407469e-01 -2.831241e-01 -5.407469e-01 -6.547241e-04 -2.687241e-03
7.308540e+09 -7.830146e-04 -2.044686e-03 -4.717470e-01 -3.853026e-01 -4.717470e-01 -3.853026e-01 -7.830146e-04 -2.044686e-03
7.358530e+09 -4.189525e-04 -1.509310e-03 -5.839358e-01 -1.687281e-01 -5.839358e-01 -1.687281e-01 -4.189525e-04 -1.509310e-03
7.408520e+09 2.058813e-04 -1.399794e-03 -6.020234e-01 7.399559e-02 -6.020234e-01 7.399559e-02 2.058813e-04 -1.399794e-03
7.458510e+09 7.047007e-04 -1.768798e-03 -5.235027e-01 3.038422e-01 -5.235027e-01 3.038422e-01 7.047007e-04 -1.768798e-03
7.508500e+09 7.747307e-04 -2.375582e-03 -3.613652e-01 4.840122e-01 -3.613652e-01 4.840122e-01 7.747307e-04 -2.375582e-03
7.558490e+09 3.807652e-04 -2.838436e-03 -1.419551e-01 5.858226e-01 -1.419551e-01 5.858226e-01 3.807652e-04 -2.838436e-03
7.608480e+09 -2.281071e-04 -2.870539e-03 9.930889e-02 5.932727e-01 9.930889e-02 5.932727e-01 -2.281071e-04 -2.870539e-03
7.658470e+09 -6.758521e-04 -2.453600e-03 3.236498e-01 5.055585e-01 3.236498e-01 5.055585e-01 -6.758521e-04 -2.453600e-03
7.708460e+09 -6.916341e-04 -1.844257e-03 4.951652e-01 3.371390e-01 4.951652e-01 3.371390e-01 -6.916341e-04 -1.844257e-03
7.758450e+09 -2.735228e-04 -1.412294e-03 5.865723e-01 1.153533e-01 5.865723e-01 1.153533e-01 -2.735228e-04 -1.412294e-03
7.808440e+09 3.150879e-04 -1.412573e-03 5.835450e-01 -1.240171e-01 5.835450e-01 -1.240171e-01 3.150879e-04 -1.412573e-03
7.858430e+09 7.111898e-04 -1.831239e-03 4.869569e-01 -3.425188e-01 4.869569e-01 -3.425188e-01 7.111898e-04 -1.831239e-03
7.908420e+09 6.758496e-04 -2.398910e-03 3.126781e-01 -5.052017e-01 3.126781e-01 -5.052017e-01 6.758496e-04 -2.398910e-03
7.958410e+09 2.381280e-04 -2.759854e-03 8.897107e-02 -5.862073e-01 8.897107e-02 -5.862073e-01 2.381280e-04 -2.759854e-03
8.008400e+09 -3.273584e-04 -2.690997e-03 -1.480905e-01 -5.728792e-01 -1.480905e-01 -5.728792e-01 -3.273584e-04 -2.690997e-03
8.058390e+09 -6.726238e-04 -2.236031e-03 -3.604384e-01 -4.677393e-01 -3.604384e-01 -4.677393e-01 -6.726238e-04 -2.236031e-03
8.108380e+09 -5.903763e-04 -1.674070e-03 -5.141228e-01 -2.880216e-01 -5.141228e-01 -2.880216e-01 -5.903763e-04 -1.674070e-03
8.158370e+09 -1.383481e-04 -1.344902e-03 -5.847396e-01 -6.284746e-02 -5.847396e-01 -6.284746e-02 -1.383481e-04 -1.344902e-03
8.208360e+09 4.005734e-04 -1.440160e-03 -5.613029e-01 1.714924e-01 -5.613029e-01 1.714924e-01 4.005734e-04 -1.440160e-03
8.258350e+09 6.952021e-04 -1.888672e-03 -4.479511e-01 3.773850e-01 -4.479511e-01 3.773850e-01 6.952021e-04 -1.888672e-03
8.308340e+09 5.694153e-04 -2.404476e-03 -2.632227e-01 5.219298e-01 -2.632227e-01 5.219298e-01 5.694153e-04 -2.404476e-03
8.358330e+09 1.072263e-04 -2.665366e-03 -3.702701e-02 5.821950e-01 -3.702701e-02 5.821950e-01 1.072263e-04 -2.665366e-03
8.408320e+09 -4.030110e-04 -2.510564e-03 1.941969e-01 5.488551e-01 1.941969e-01 5.488551e-01 -4.030110e-04 -2.510564e-03
8.458310e+09 -6.484253e-04 -2.036330e-03 3.933501e-01 4.276330e-01 3.933501e-01 4.276330e-01 -6.484253e-04 -2.036330e-03
8.508300e+09 -4.834066e-04 -1.532741e-03 5.286258e-01 2.383208e-01 5.286258e-01 2.383208e-01 -4.834066e-04 -1.532741e-03
8.558290e+09 -1.585345e-05 -1.303006e-03 5.785884e-01 1.154877e-02 5.785884e-01 1.154877e-02 -1.585345e-05 -1.303006e-03
8.608280e+09 4.630788e-04 -1.477782e-03 5.355676e-01 -2.161697e-01 5.355676e-01 -2.161697e-01 4.630788e-04 -1.477782e-03
8.658270e+09 6.601342e-04 -1.938139e-03 4.068325e-01 -4.083152e-01 4.068325e-01 -4.083152e-01 6.601342e-04 -1.938139e-03
8.708260e+09 4.593733e-04 -2.392466e-03 2.133675e-01 -5.342171e-01 2.133675e-01 -5.342171e-01 4.593733e-04 -2.392466e-03
8.758250e+09 -9.846929e-06 -2.557723e-03 -1.354659e-02 -5.739485e-01 -1.354659e-02 -5.739485e-01 -9.846929e-06 -2.557723e-03
8.808240e+09 -4.560663e-04 -2.332443e-03 -2.373882e-01 -5.214795e-01 -2.373882e-01 -5.214795e-01 -4.560663e-04 -2.332443e-03
8.858230e+09 -6.067019e-04 -1.855808e-03 -4.222737e-01 -3.855900e-01 -4.222737e-01 -3.855900e-01 -6.067019e-04 -1.855808e-03
8.908220e+09 -3.744968e-04 -1.418541e-03 -5.387090e-01 -1.884022e-01 -5.387090e-01 -1.884022e-01 -3.744968e-04 -1.418541e-03
8.958210e+09 9.214220e-05 -1.282552e-03 -5.682936e-01 3.822048e-02 -5.682936e-01 3.822048e-02 9.214220e-05 -1.282552e-03
9.008200e+09 5.037982e-04 -1.521176e-03 -5.066260e-01 2.578212e-01 -5.066260e-01 2.578212e-01 5.037982e-04 -1.521176e-03
9.058190e+09 6.094129e-04 -1.977385e-03 -3.639540e-01 4.352124e-01 -3.639540e-01 4.352124e-01 6.094129e-04 -1.977385e-03
9.108180e+09 3.492657e-04 -2.363607e-03 -1.634745e-01 5.421125e-01 -1.634745e-01 5.421125e-01 3.492657e-04 -2.363607e-03
9.158170e+09 -1.115872e-04 -2.439792e-03 6.243605e-02 5.616546e-01 6.243605e-02 5.616546e-01 -1.115872e-04 -2.439792e-03
9.208160e+09 -4.879405e-04 -2.159522e-03 2.774492e-01 4.910466e-01 2.774492e-01 4.910466e-01 -4.879405e-04 -2.159522e-03
9.258150e+09 -5.508908e-04 -1.695292e-03 4.471266e-01 3.419648e-01 4.471266e-01 3.419648e-01 -5.508908e-04 -1.695292e-03
9.308140e+09 -2.669965e-04 -1.329435e-03 5.444354e-01 1.386240e-01 5.444354e-01 1.386240e-01 -2.669965e-04 -1.329435e-03
9.358130e+09 1.843977e-04 -1.279598e-03 5.540533e-01 -8.615579e-02 5.540533e-01 -8.615579e-02 1.843977e-04 -1.279598e-03
9.408120e+09 5.243103e-04 -1.566596e-03 4.747794e-01 -2.962446e-01 4.747794e-01 -2.962446e-01 5.243103e-04 -1.566596e-03
9.458110e+09 5.464283e-04 -2.004814e-03 3.196715e-01 -4.580085e-01 3.196715e-01 -4.580085e-01 5.464283e-04 -2.004814e-03
9.508100e+09 2.422045e-04 -2.319078e-03 1.138974e-01 -5.456929e-01 1.138974e-01 -5.456929e-01 2.422045e-04 -2.319078e-03
9.558090e+09 -1.970476e-04 -2.314467e-03 -1.093465e-01 -5.455223e-01 -1.093465e-01 -5.455223e-01 -1.970476e-04 -2.314467e-03
9.608080e+09 -5.003958e-04 -1.994337e-03 -3.141908e-01 -4.578639e-01 -3.141908e-01 -4.578639e-01 -5.003958e-04 -1.994337e-03
9.658070e+09 -4.843568e-04 -1.555137e-03 -4.678555e-01 -2.971140e-01 -4.678555e-01 -2.971140e-01 -4.843568e-04 -1.555137e-03
9.708060e+09 -1.638123e-04 -1.263136e-03 -5.458953e-01 -8.933446e-02 -5.458953e-01 -8.933446e-02 -1.638123e-04 -1.263136e-03
9.758050e+09 2.602148e-04 -1.290368e-03 -5.360868e-01 1.319724e-01 -5.360868e-01 1.319724e-01 2.602148e-04 -1.290368e-03
9.808040e+09 5.265077e-04 -1.610818e-03 -4.403407e-01 3.312641e-01 -4.403407e-01 3.312641e-01 5.265077e-04 -1.610818e-03
9.858030e+09 4.744699e-04 -2.019434e-03 -2.743413e-01 4.766645e-01 -2.743413e-01 4.766645e-01 4.744699e-04 -2.019434e-03
9.908020e+09 1.408532e-04 -2.260422e-03 -6.497902e-02 5.450617e-01 -6.497902e-02 5.450617e-01 1.408532e-04 -2.260422e-03
9.958010e+09 -2.658010e-04 -2.184594e-03 1.540037e-01 5.257809e-01 1.540037e-01 5.257809e-01 -2.658010e-04 -2.184594e-03
1.000800e+10 -4.954698e-04 -1.839037e-03 3.474507e-01 4.222494e-01 3.474507e-01 4.222494e-01 -4.954698e-04 -1.839037e-03
1.005799e+10 -4.103306e-04 -1.435253e-03 4.844356e-01 2.513932e-01 4.844356e-01 2.513932e-01 -4.103306e-04 -1.435253e-03
1.010798e+10 -6.739314e-05 -1.217163e-03 5.432054e-01 4.087014e-02 5.432054e-01 4.087014e-02 -6.739314e-05 -1.217163e-03
1.015797e+10 3.193961e-04 -1.311295e-03 5.146330e-01 -1.754069e-01 5.146330e-01 -1.754069e-01 3.193961e-04 -1.311295e-03
1.020796e+10 5.125250e-04 -1.651135e-03 4.036325e-01 -3.627311e-01 4.036325e-01 -3.627311e-01 5.125250e-04 -1.651135e-03
1.025795e+10 3.966674e-04 -2.020799e-03 2.283179e-01 -4.911703e-01 2.283179e-01 -4.911703e-01 3.966674e-04 -2.020799e-03
1.030794e+10 4.741689e-05 -2.189465e-03 1.704884e-02 -5.403485e-01 1.704884e-02 -5.403485e-01 4.741689e-05 -2.189465e-03
1.035793e+10 -3.178956e-04 -2.052903e-03 -1.961555e-01 -5.026782e-01 -1.961555e-01 -5.026782e-01 -3.178956e-04 -2.052903e-03
1.040792e+10 -4.754034e-04 -1.695364e-03 -3.770943e-01 -3.845295e-01 -3.770943e-01 -3.845295e-01 -4.754034e-04 -1.695364e-03
1.045791e+10 -3.318546e-04 -1.335141e-03 -4.968711e-01 -2.051550e-01 -4.968711e-01 -2.051550e-01 -3.318546e-04 -1.335141e-03
1.050790e+10 2.027429e-05 -1.188901e-03 -5.365073e-01 6.446704e-03 -5.365073e-01 6.446704e-03 2.027429e-05 -1.188901e-03
1.055789e+10 3.621974e-04 -1.339062e-03 -4.899482e-01 2.162186e-01 -4.899482e-01 2.162186e-01 3.621974e-04 -1.339062e-03
1.060788e+10 4.846668e-04 -1.685354e-03 -3.649844e-01 3.905251e-01 -3.649844e-01 3.905251e-01 4.846668e-04 -1.685354e-03
1.065787e+10 3.159388e-04 -2.008954e-03 -1.819514e-01 5.015440e-01 -1.819514e-01 5.015440e-01 3.159388e-04 -2.008954e-03
1.070786e+10 -3.635918e-05 -2.108231e-03 2.957856e-02 5.317069e-01 2.957856e-02 5.317069e-01 -3.635918e-05 -2.108231e-03
1.075785e+10 -3.538051e-04 -1.921945e-03 2.355731e-01 4.764787e-01 2.355731e-01 4.764787e-01 -3.538051e-04 -1.921945e-03
1.080784e+10 -4.425705e-04 -1.564649e-03 4.030150e-01 3.450367e-01 4.030150e-01 3.450367e-01 -4.425705e-04 -1.564649e-03
1.085783e+10 -2.517340e-04 -1.253933e-03 5.051941e-01 1.587465e-01 5.051941e-01 1.587465e-01 -2.517340e-04 -1.253933e-03
1.090782e+10 9.766192e-05 -1.175663e-03 5.259665e-01 -5.230981e-02 5.259665e-01 -5.230981e-02 9.766192e-05 -1.175663e-03
1.095781e+10 3.892744e-04 -1.370643e-03 4.623042e-01 -2.541910e-01 4.623042e-01 -2.541910e-01 3.892744e-04 -1.370643e-03
1.100780e+10 4.453378e-04 -1.711778e-03 3.247309e-01 -4.145533e-01 3.247309e-01 -4.145533e-01 4.453378e-04 -1.711778e-03
1.105779e+10 2.349461e-04 -1.984367e-03 1.355853e-01 -5.078314e-01 1.355853e-01 -5.078314e-01 2.349461e-04 -1.984367e-03
1.110778e+10 -1.091816e-04 -2.018866e-03 -7.460563e-02 -5.193136e-01 -7.460563e-02 -5.193136e-01 -1.091816e-04 -2.018866e-03
1.115777e+10 -3.743735e-04 -1.794044e-03 -2.720523e-01 -4.474611e-01 -2.720523e-01 -4.474611e-01 -3.743735e-04 -1.794044e-03
1.120776e+10 -3.994100e-04 -1.447812e-03 -4.251343e-01 -3.041068e-01 -4.251343e-01 -3.041068e-01 -3.994100e-04 -1.447812e-03
1.125775e+10 -1.724979e-04 -1.190443e-03 -5.094640e-01 -1.125069e-01 -5.094640e-01 -1.125069e-01 -1.724979e-04 -1.190443e-03
1.130774e+10 1.636879e-04 -1.174748e-03 -5.117705e-01 9.643076e-02 -5.117705e-01 9.643076e-02 1.636879e-04 -1.174748e-03
1.135773e+10 4.016262e-04 -1.403334e-03 -4.319861e-01 2.891324e-01 -4.319861e-01 2.891324e-01 4.016262e-04 -1.403334e-03
1.140772e+10 3.969767e-04 -1.729186e-03 -2.832090e-01 4.347515e-01 -2.832090e-01 4.347515e-01 3.969767e-04 -1.729186e-03
1.145771e+10 1.560596e-04 -1.947873e-03 -8.955426e-02 5.101055e-01 -8.955426e-02 5.101055e-01 1.560596e-04 -1.947873e-03
1.150770e+10 -1.701924e-04 -1.923570e-03 1.177535e-01 5.033664e-01 1.177535e-01 5.033664e-01 -1.701924e-04 -1.923570e-03
1.155769e+10 -3.807575e-04 -1.671258e-03 3.054144e-01 4.159163e-01 3.054144e-01 4.159163e-01 -3.807575e-04 -1.671258e-03
1.160768e+10 -3.483617e-04 -1.345373e-03 4.434020e-01 2.620770e-01 4.434020e-01 2.620770e-01 -3.483617e-04 -1.345373e-03
1.165767e+10 -9.636765e-05 -1.143216e-03 5.097668e-01 6.676576e-02 5.097668e-01 6.676576e-02 -9.636765e-05 -1.143216e-03
1.170766e+10 2.176959e-04 -1.183502e-03 4.941269e-01 -1.385406e-01 4.941269e-01 -1.385406e-01 2.176959e-04 -1.183502e-03
1.175765e+10 4.005362e-04 -1.434772e-03 3.992901e-01 -3.208773e-01 3.992901e-01 -3.208773e-01 4.005362e-04 -1.434772e-03
1.180764e+10 3.419942e-04 -1.736809e-03 2.407555e-01 -4.510834e-01 2.407555e-01 -4.510834e-01 3.419942e-04 -1.736809e-03
1.185763e+10 8.133083e-05 -1.900602e-03 4.418194e-02 -5.084649e-01 4.418194e-02 -5.084649e-01 8.133083e-05 -1.900602e-03
1.190762e+10 -2.189453e-04 -1.824526e-03 -1.587635e-01 -4.840828e-01 -1.587635e-01 -4.840828e-01 -2.189453e-04 -1.824526e-03
1.195761e+10 -3.743666e-04 -1.555348e-03 -3.355070e-01 -3.821452e-01 -3.355070e-01 -3.821452e-01 -3.743666e-04 -1.555348e-03
1.200760e+10 -2.918078e-04 -1.257475e-03 -4.577957e-01 -2.192835e-01 -4.577957e-01 -2.192835e-01 -2.918078e-04 -1.257475e-03
1.205759e+10 -2.523517e-05 -1.110590e-03 -5.062135e-01 -2.184036e-02 -5.062135e-01 -2.184036e-02 -2.523517e-05 -1.110590e-03
1.210758e+10 2.594275e-04 -1.199368e-03 -4.732623e-01 1.783913e-01 -4.732623e-01 1.783913e-01 2.594275e-04 -1.199368e-03
1.215757e+10 3.875110e-04 -1.462956e-03 -3.645213e-01 3.492864e-01 -3.645213e-01 3.492864e-01 3.875110e-04 -1.462956e-03
1.220756e+10 2.827171e-04 -1.734289e-03 -1.977051e-01 4.635407e-01 -1.977051e-01 4.635407e-01 2.827171e-04 -1.734289e-03
1.225755e+10 1.247555e-05 -1.843918e-03 2.209783e-04 5.030328e-01 2.209783e-04 5.030328e-01 1.247555e-05 -1.843918e-03
1.230754e+10 -2.553743e-04 -1.723846e-03 1.973986e-01 4.616976e-01 1.973986e-01 4.616976e-01 -2.553743e-04 -1.723846e-03
1.235753e+10 -3.568030e-04 -1.447761e-03 3.622043e-01 3.464563e-01 3.622043e-01 3.464563e-01 -3.568030e-04 -1.447761e-03
1.240752e+10 -2.320204e-04 -1.183916e-03 4.683210e-01 1.760590e-01 4.683210e-01 1.760590e-01 -2.320204e-04 -1.183916e-03
1.245751e+10 3.934986e-05 -1.090743e-03 4.989394e-01 -2.196576e-02 4.989394e-01 -2.196576e-02 3.934986e-05 -1.090743e-03
1.250750e+10 2.889876e-04 -1.219933e-03 4.494195e-01 -2.157571e-01 4.494195e-01 -2.157571e-01 2.889876e-04 -1.219933e-03
1.255749e+10 3.642210e-04 -1.486249e-03 3.279912e-01 -3.742475e-01 3.279912e-01 -3.742475e-01 3.642210e-04 -1.486249e-03
1.260748e+10 2.213392e-04 -1.721645e-03 1.543879e-01 -4.721422e-01 1.543879e-01 -4.721422e-01 2.213392e-04 -1.721645e-03
1.265747e+10 -4.913528e-05 -1.779355e-03 -4.335862e-02 -4.939558e-01 -4.335862e-02 -4.939558e-01 -4.913528e-05 -1.779355e-03
1.270746e+10 -2.797569e-04 -1.623518e-03 -2.334443e-01 -4.364613e-01 -2.334443e-01 -4.364613e-01 -2.797569e-04 -1.623518e-03
1.275745e+10 -3.298018e-04 -1.349617e-03 -3.854074e-01 -3.091638e-01 -3.854074e-01 -3.091638e-01 -3.298018e-04 -1.349617e-03
1.280744e+10 -1.711156e-04 -1.124176e-03 -4.750098e-01 -1.327304e-01 -4.750098e-01 -1.327304e-01 -1.711156e-04 -1.124176e-03
1.285743e+10 9.618417e-05 -1.081759e-03 -4.881019e-01 6.436481e-02 -4.881019e-01 6.436481e-02 9.618417e-05 -1.081759e-03
1.290742e+10 3.068051e-04 -1.242969e-03 -4.228561e-01 2.504352e-01 -4.228561e-01 2.504352e-01 3.068051e-04 -1.242969e-03
1.295741e+10 3.324414e-04 -1.503380e-03 -2.900157e-01 3.956751e-01 -2.900157e-01 3.956751e-01 3.324414e-04 -1.503380e-03
1.300740e+10 1.598793e-04 -1.699229e-03 -1.111276e-01 4.769332e-01 -1.111276e-01 4.769332e-01 1.598793e-04 -1.699229e-03
1.305739e+10 -1.024752e-04 -1.708556e-03 8.495168e-02 4.814024e-01 8.495168e-02 4.814024e-01 -1.024752e-04 -1.708556e-03
1.310738e+10 -2.926725e-04 -1.525363e-03 2.667102e-01 4.086380e-01 2.667102e-01 4.086380e-01 -2.926725e-04 -1.525363e-03
1.315737e+10 -2.951741e-04 -1.261712e-03 4.050448e-01 2.705847e-01 4.050448e-01 2.705847e-01 -2.951741e-04 -1.261712e-03
1.320736e+10 -1.110158e-04 -1.077463e-03 4.779206e-01 8.961715e-02 4.779206e-01 8.961715e-02 -1.110158e-04 -1.077463e-03
1.325735e+10 1.444065e-04 -1.081673e-03 4.738798e-01 -1.050864e-01 4.738798e-01 -1.050864e-01 1.444065e-04 -1.081673e-03
1.330734e+10 3.135892e-04 -1.266466e-03 3.938419e-01 -2.822474e-01 3.938419e-01 -2.822474e-01 3.135892e-04 -1.266466e-03
1.335733e+10 2.939962e-04 -1.513433e-03 2.509125e-01 -4.135113e-01 2.509125e-01 -4.135113e-01 2.939962e-04 -1.513433e-03
1.340732e+10 1.001469e-04 -1.667676e-03 6.823861e-02 -4.779848e-01 6.823861e-02 -4.779848e-01 1.001469e-04 -1.667676e-03
1.345731e+10 -1.468543e-04 -1.633214e-03 -1.247390e-01 -4.655610e-01 -1.247390e-01 -4.655610e-01 -1.468543e-04 -1.633214e-03
1.350730e+10 -2.949574e-04 -1.431001e-03 -2.970301e-01 -3.785029e-01 -2.970301e-01 -3.785029e-01 -2.949574e-04 -1.431001e-03
1.355729e+10 -2.547526e-04 -1.184524e-03 -4.210717e-01 -2.310370e-01 -4.210717e-01 -2.310370e-01 -2.547526e-04 -1.184524e-03
1.360728e+10 -5.341977e-05 -1.042756e-03 -4.771369e-01 -4.702874e-02 -4.771369e-01 -4.702874e-02 -5.341977e-05 -1.042756e-03
1.365727e+10 1.834857e-04 -1.088529e-03 -4.564710e-01 1.438788e-01 -4.564710e-01 1.438788e-01 1.834857e-04 -1.088529e-03
1.370726e+10 3.102831e-04 -1.288662e-03 -3.626574e-01 3.110399e-01 -3.626574e-01 3.110399e-01 3.102831e-04 -1.288662e-03
1.375725e+10 2.507063e-04 -1.515833e-03 -2.109993e-01 4.277247e-01 -2.109993e-01 4.277247e-01 2.507063e-04 -1.515833e-03
1.380724e+10 4.371630e-05 -1.627859e-03 -2.602499e-02 4.753926e-01 -2.602499e-02 4.753926e-01 4.371630e-05 -1.627859e-03
1.385723e+10 -1.819033e-04 -1.555020e-03 1.624788e-01 4.466384e-01 1.624788e-01 4.466384e-01 -1.819033e-04 -1.555020e-03
1.390722e+10 -2.876577e-04 -1.341825e-03 3.242631e-01 3.463408e-01 3.242631e-01 3.463408e-01 -2.876577e-04 -1.341825e-03
1.395721e+10 -2.103423e-04 -1.118226e-03 4.334702e-01 1.908372e-01 4.334702e-01 1.908372e-01 -2.103423e-04 -1.118226e-03
1.400720e+10 2.197000e-07 -1.018846e-03 4.727661e-01 5.262981e-03 4.727661e-01 5.262981e-03 2.197000e-07 -1.018846e-03
1.405719e+10 2.132017e-04 -1.100421e-03 4.360908e-01 -1.805107e-01 4.360908e-01 -1.805107e-01 2.132017e-04 -1.100421e-03
1.410718e+10 2.980164e-04 -1.308052e-03 3.295908e-01 -3.366847e-01 3.295908e-01 -3.366847e-01 2.980164e-04 -1.308052e-03
1.415717e+10 2.043420e-04 -1.510322e-03 1.705911e-01 -4.383105e-01 1.705911e-01 -4.383105e-01 2.043420e-04 -1.510322e-03
1.420716e+10 -8.091694e-06 -1.580835e-03 -1.522203e-02 -4.692757e-01 -1.522203e-02 -4.692757e-01 -8.091694e-06 -1.580835e-03
1.425715e+10 -2.075521e-04 -1.475617e-03 -1.979503e-01 -4.248581e-01 -1.979503e-01 -4.248581e-01 -2.075521e-04 -1.475617e-03
1.430714e+10 -2.719813e-04 -1.258985e-03 -3.482938e-01 -3.124433e-01 -3.482938e-01 -3.124433e-01 -2.719813e-04 -1.258985e-03
1.435713e+10 -1.636752e-04 -1.062712e-03 -4.422484e-01 -1.502984e-01 -4.422484e-01 -1.502984e-01 -1.636752e-04 -1.062712e-03
1.440712e+10 4.870949e-05 -1.004390e-03 -4.649384e-01 3.539586e-02 -4.649384e-01 3.539586e-02 4.870949e-05 -1.004390e-03
1.445711e+10 2.336209e-04 -1.115537e-03 -4.129701e-01 2.147721e-01 -4.129701e-01 2.147721e-01 2.336209e-04 -1.115537e-03
1.450710e+10 2.780566e-04 -1.323410e-03 -2.949366e-01 3.590791e-01 -2.949366e-01 3.590791e-01 2.780566e-04 -1.323410e-03
1.455709e+10 1.565813e-04 -1.496933e-03 -1.299985e-01 4.452898e-01 -1.299985e-01 4.452898e-01 1.565813e-04 -1.496933e-03
1.460708e+10 -5.421972e-05 -1.527800e-03 5.522558e-02 4.597751e-01 5.522558e-02 4.597751e-01 -5.421972e-05 -1.527800e-03
1.465707e+10 -2.240025e-04 -1.396556e-03 2.309545e-01 4.004580e-01 2.309545e-01 4.004580e-01 -2.240025e-04 -1.396556e-03
1.470706e+10 -2.492497e-04 -1.183372e-03 3.690326e-01 2.771069e-01 3.690326e-01 2.771069e-01 -2.492497e-04 -1.183372e-03
1.475705e+10 -1.163721e-04 -1.017622e-03 4.474404e-01 1.097280e-01 4.474404e-01 1.097280e-01 -1.163721e-04 -1.017622e-03
1.480704e+10 9.112270e-05 -9.979480e-04 4.538054e-01 -7.467873e-02 4.538054e-01 -7.467873e-02 9.112270e-05 -9.979480e-04
1.485703e+10 2.450662e-04 -1.132198e-03 3.873534e-01 -2.464750e-01 3.873534e-01 -2.464750e-01 2.450662e-04 -1.132198e-03
1.490702e+10 2.517620e-04 -1.333780e-03 2.589928e-01 -3.781465e-01 2.589928e-01 -3.781465e-01 2.517620e-04 -1.333780e-03
1.495701e+10 1.089738e-04 -1.475957e-03 8.952519e-02 -4.487091e-01 8.952519e-02 -4.487091e-01 1.089738e-04 -1.475957e-03
1.500700e+10 -9.387668e-05 -1.470037e-03 -9.372479e-02 -4.470524e-01 -9.372479e-02 -4.470524e-01 -9.387668e-05 -1.470037e-03
1.505699e+10 -2.316959e-04 -1.319259e-03 -2.613150e-01 -3.736886e-01 -2.613150e-01 -3.736886e-01 -2.316959e-04 -1.319259e-03
1.510698e+10 -2.208522e-04 -1.115624e-03 -3.864157e-01 -2.406306e-01 -3.864157e-01 -2.406306e-01 -2.208522e-04 -1.115624e-03
1.515697e+10 -6.990979e-05 -9.823710e-04 -4.491046e-01 -6.942578e-02 -4.491046e-01 -6.942578e-02 -6.990979e-05 -9.823710e-04
1.520696e+10 1.267976e-04 -9.980361e-04 -4.395381e-01 1.123333e-01 -4.395381e-01 1.123333e-01 1.267976e-04 -9.980361e-04
1.525695e+10 2.480838e-04 -1.148880e-03 -3.594967e-01 2.754549e-01 -3.594967e-01 2.754549e-01 2.480838e-04 -1.148880e-03
1.530694e+10 2.205366e-04 -1.338485e-03 -2.220591e-01 3.938361e-01 -2.220591e-01 3.938361e-01 2.205366e-04 -1.338485e-03
1.535693e+10 6.291169e-05 -1.447906e-03 -4.946638e-02 4.486389e-01 -4.946638e-02 4.486389e-01 6.291169e-05 -1.447906e-03
1.540692e+10 -1.265334e-04 -1.408874e-03 1.304763e-01 4.312879e-01 1.304763e-01 4.312879e-01 -1.265334e-04 -1.408874e-03
1.545691e+10 -2.312791e-04 -1.244995e-03 2.888790e-01 3.448110e-01 2.888790e-01 3.448110e-01 -2.312791e-04 -1.244995e-03
1.550690e+10 -1.882018e-04 -1.056126e-03 4.004051e-01 2.033143e-01 4.004051e-01 2.033143e-01 -1.882018e-04 -1.056126e-03
1.555689e+10 -2.559478e-05 -9.561890e-04 4.473234e-01 2.968176e-02 4.473234e-01 2.968176e-02 -2.559478e-05 -9.561890e-04
1.560688e+10 1.553302e-04 -1.003164e-03 4.223260e-01 -1.481254e-01 4.223260e-01 -1.481254e-01 1.553302e-04 -1.003164e-03
1.565687e+10 2.434069e-04 -1.164246e-03 3.296657e-01 -3.015709e-01 3.296657e-01 -3.015709e-01 2.434069e-04 -1.164246e-03
1.570686e+10 1.857874e-04 -1.337104e-03 1.844346e-01 -4.061223e-01 1.844346e-01 -4.061223e-01 1.857874e-04 -1.337104e-03
1.575685e+10 1.960663e-05 -1.413480e-03 1.010669e-02 -4.451730e-01 1.010669e-02 -4.451730e-01 1.960663e-05 -1.413480e-03
1.580684e+10 -1.519122e-04 -1.345635e-03 -1.652554e-01 -4.126794e-01 -1.652554e-01 -4.126794e-01 -1.519122e-04 -1.345635e-03
1.585683e+10 -2.235667e-04 -1.174854e-03 -3.135176e-01 -3.140948e-01 -3.135176e-01 -3.140948e-01 -2.235667e-04 -1.174854e-03
1.590682e+10 -1.526943e-04 -1.005022e-03 -4.109880e-01 -1.654559e-01 -4.109880e-01 -1.654559e-01 -1.526943e-04 -1.005022e-03
1.595681e+10 1.545557e-05 -9.381525e-04 -4.422019e-01 9.225331e-03 -4.422019e-01 9.225331e-03 1.545557e-05 -9.381525e-04
1.600680e+10 1.765605e-04 -1.011873e-03 -4.023746e-01 1.818403e-01 -4.023746e-01 1.818403e-01 1.765605e-04 -1.011873e-03
1.605679e+10 2.319178e-04 -1.177159e-03 -2.981334e-01 3.247061e-01 -2.981334e-01 3.247061e-01 2.319178e-04 -1.177159e-03
1.610678e+10 1.488859e-04 -1.329467e-03 -1.464157e-01 4.150049e-01 -1.464157e-01 4.150049e-01 1.488859e-04 -1.329467e-03
1.615677e+10 -1.992583e-05 -1.373523e-03 2.828152e-02 4.384274e-01 2.828152e-02 4.384274e-01 -1.992583e-05 -1.373523e-03
1.620676e+10 -1.699703e-04 -1.281611e-03 1.978574e-01 3.914400e-01 1.978574e-01 3.914400e-01 -1.699703e-04 -1.281611e-03
1.625675e+10 -2.095032e-04 -1.109733e-03 3.351263e-01 2.818158e-01 3.351263e-01 2.818158e-01 -2.095032e-04 -1.109733e-03
1.630674e+10 -1.156723e-04 -9.622324e-04 4.181764e-01 1.273497e-01 4.181764e-01 1.273497e-01 -1.156723e-04 -9.622324e-04
1.635673e+10 5.232600e-05 -9.272247e-04 4.338664e-01 -4.702992e-02 4.338664e-01 -4.702992e-02 5.232600e-05 -9.272247e-04
1.640672e+10 1.905540e-04 -1.022775e-03 3.799040e-01 -2.132835e-01 3.799040e-01 -2.132835e-01 1.905540e-04 -1.022775e-03
1.645671e+10 2.146098e-04 -1.186688e-03 2.651779e-01 -3.447684e-01 2.651779e-01 -3.447684e-01 2.146098e-04 -1.186688e-03
1.650670e+10 1.111338e-04 -1.315629e-03 1.082943e-01 -4.205083e-01 1.082943e-01 -4.205083e-01 1.111338e-04 -1.315629e-03
1.655669e+10 -5.487592e-05 -1.328987e-03 -6.543986e-02 -4.285386e-01 -6.543986e-02 -4.285386e-01 -5.487592e-05 -1.328987e-03
1.660668e+10 -1.808792e-04 -1.218019e-03 -2.280985e-01 -3.677963e-01 -2.280985e-01 -3.677963e-01 -1.808792e-04 -1.218019e-03
1.665667e+10 -1.901249e-04 -1.050328e-03 -3.536251e-01 -2.482542e-01 -3.536251e-01 -2.482542e-01 -1.901249e-04 -1.050328e-03
1.670666e+10 -7.839267e-05 -9.274749e-04 -4.220067e-01 -8.928430e-02 -4.220067e-01 -8.928430e-02 -7.839267e-05 -9.274749e-04
1.675665e+10 8.430947e-05 -9.222918e-04 -4.224633e-01 8.348115e-02 -4.224633e-01 8.348115e-02 8.430947e-05 -9.222918e-04
1.680664e+10 1.975785e-04 -1.034579e-03 -3.551470e-01 2.422820e-01 -3.551470e-01 2.422820e-01 1.975785e-04 -1.034579e-03
1.685663e+10 1.925493e-04 -1.192122e-03 -2.310809e-01 3.616900e-01 -2.310809e-01 3.616900e-01 1.925493e-04 -1.192122e-03
1.690662e+10 7.373341e-05 -1.295845e-03 -7.035521e-02 4.226804e-01 -7.035521e-02 4.226804e-01 7.373341e-05 -1.295845e-03
1.695661e+10 -8.464279e-05 -1.280892e-03 1.011254e-01 4.156624e-01 1.011254e-01 4.156624e-01 -8.464279e-05 -1.280892e-03
1.700660e+10 -1.850001e-04 -1.155974e-03 2.558166e-01 3.419866e-01 2.558166e-01 3.419866e-01 -1.850001e-04 -1.155974e-03
1.705659e+10 -1.665226e-04 -9.971310e-04 3.689585e-01 2.136924e-01 3.689585e-01 2.136924e-01 -1.665226e-04 -9.971310e-04
1.710658e+10 -4.200037e-05 -9.002888e-04 4.225384e-01 5.154084e-02 4.225384e-01 5.154084e-02 -4.200037e-05 -9.002888e-04
1.715657e+10 1.109074e-04 -9.221994e-04 4.081575e-01 -1.183443e-01 4.081575e-01 -1.183443e-01 1.109074e-04 -9.221994e-04
1.720656e+10 1.980783e-04 -1.046117e-03 3.283468e-01 -2.686848e-01 3.283468e-01 -2.686848e-01 1.980783e-04 -1.046117e-03
1.725655e+10 1.668395e-04 -1.192957e-03 1.961249e-01 -3.754275e-01 1.961249e-01 -3.754275e-01 1.668395e-04 -1.192957e-03
1.730654e+10 3.776354e-05 -1.270545e-03 3.287516e-02 -4.215922e-01 3.287516e-02 -4.215922e-01 3.776354e-05 -1.270545e-03
1.735653e+10 -1.088319e-04 -1.230294e-03 -1.351118e-01 -3.999723e-01 -1.351118e-01 -3.999723e-01 -1.088319e-04 -1.230294e-03
1.740652e+10 -1.828560e-04 -1.096469e-03 -2.808719e-01 -3.142590e-01 -2.808719e-01 -3.142590e-01 -1.828560e-04 -1.096469e-03
1.745651e+10 -1.398061e-04 -9.504336e-04 -3.810952e-01 -1.784128e-01 -3.810952e-01 -1.784128e-01 -1.398061e-04 -9.504336e-04
1.750650e+10 -7.506523e-06 -8.800636e-04 -4.198535e-01 -1.439088e-02 -4.198535e-01 -1.439088e-02 -7.506523e-06 -8.800636e-04
1.755649e+10 1.318244e-04 -9.257869e-04 -3.911307e-01 1.514020e-01 -3.911307e-01 1.514020e-01 1.318244e-04 -9.257869e-04
1.760648e+10 1.926452e-04 -1.056362e-03 -2.997556e-01 2.923635e-01 -2.997556e-01 2.923635e-01 1.926452e-04 -1.056362e-03
1.765647e+10 1.385860e-04 -1.188899e-03 -1.605918e-01 3.859618e-01 -1.605918e-01 3.859618e-01 1.385860e-04 -1.188899e-03
1.770646e+10 4.160864e-06 -1.240304e-03 3.879662e-03 4.173365e-01 3.879662e-03 4.173365e-01 4.160864e-06 -1.240304e-03
1.775645e+10 -1.272469e-04 -1.178243e-03 1.671911e-01 3.816580e-01 1.671911e-01 3.816580e-01 -1.272469e-04 -1.178243e-03
1.780644e+10 -1.751026e-04 -1.040354e-03 3.031476e-01 2.848689e-01 3.031476e-01 2.848689e-01 -1.751026e-04 -1.040354e-03
1.785643e+10 -1.110719e-04 -9.103365e-04 3.900282e-01 1.426959e-01 3.900282e-01 1.426959e-01 -1.110719e-04 -9.103365e-04
1.790642e+10 2.422737e-05 -8.660678e-04 4.140554e-01 -2.190510e-02 4.140554e-01 -2.190510e-02 2.422737e-05 -8.660678e-04
1.795641e+10 1.469575e-04 -9.319191e-04 3.715798e-01 -1.824556e-01 3.715798e-01 -1.824556e-01 1.469575e-04 -9.319191e-04
1.800640e+10 1.819882e-04 -1.064447e-03 2.696320e-01 -3.132128e-01 2.696320e-01 -3.132128e-01 1.819882e-04 -1.064447e-03
1.805639e+10 1.088660e-04 -1.179844e-03 1.247603e-01 -3.932974e-01 1.247603e-01 -3.932974e-01 1.088660e-04 -1.179844e-03
1.810638e+10 -2.629346e-05 -1.205810e-03 -3.965494e-02 -4.100268e-01 -3.965494e-02 -4.100268e-01 -2.629346e-05 -1.205810e-03
1.815637e+10 -1.398775e-04 -1.125760e-03 -1.971741e-01 -3.609231e-01 -1.971741e-01 -3.609231e-01 -1.398775e-04 -1.125760e-03
1.820636e+10 -1.624975e-04 -9.883252e-04 -3.225499e-01 -2.540776e-01 -3.225499e-01 -2.540776e-01 -1.624975e-04 -9.883252e-04
1.825635e+10 -8.137344e-05 -8.767617e-04 -3.957735e-01 -1.068185e-01 -3.957735e-01 -1.068185e-01 -8.137344e-05 -8.767617e-04
1.830634e+10 5.250002e-05 -8.574790e-04 -4.052674e-01 5.709937e-02 -4.052674e-01 5.709937e-02 5.250002e-05 -8.574790e-04
1.835633e+10 1.563821e-04 -9.395140e-04 -3.497152e-01 2.113258e-01 -3.497152e-01 2.113258e-01 1.563821e-04 -9.395140e-04
1.840632e+10 1.669035e-04 -1.069668e-03 -2.382395e-01 3.311506e-01 -2.382395e-01 3.311506e-01 1.669035e-04 -1.069668e-03
1.845631e+10 7.870023e-05 -1.165866e-03 -8.890464e-02 3.974623e-01 -8.890464e-02 3.974623e-01 7.870023e-05 -1.165866e-03
1.850630e+10 -5.298164e-05 -1.167834e-03 7.420986e-02 3.997960e-01 7.420986e-02 3.997960e-01 -5.298164e-05 -1.167834e-03
1.855629e+10 -1.468823e-04 -1.073806e-03 2.248918e-01 3.379841e-01 2.248918e-01 3.379841e-01 -1.468823e-04 -1.073806e-03
1.860628e+10 -1.458699e-04 -9.409173e-04 3.390083e-01 2.221503e-01 3.390083e-01 2.221503e-01 -1.458699e-04 -9.409173e-04
1.865627e+10 -5.169508e-05 -8.494702e-04 3.983703e-01 7.105150e-02 3.983703e-01 7.105150e-02 -5.169508e-05 -8.494702e-04
1.870626e+10 7.677560e-05 -8.534143e-04 3.936315e-01 -9.095838e-02 3.936315e-01 -9.095838e-02 7.677560e-05 -8.534143e-04
1.875625e+10 1.603332e-04 -9.475677e-04 3.257587e-01 -2.378538e-01 3.257587e-01 -2.378538e-01 1.603332e-04 -9.475677e-04
1.880624e+10 1.482437e-04 -1.071490e-03 2.058440e-01 -3.461178e-01 2.058440e-01 -3.461178e-01 1.482437e-04 -1.071490e-03
1.885623e+10 4.902936e-05 -1.147198e-03 5.329211e-02 -3.985064e-01 5.329211e-02 -3.985064e-01 4.902936e-05 -1.147198e-03
1.890622e+10 -7.545206e-05 -1.127199e-03 -1.073185e-01 -3.867948e-01 -1.073185e-01 -3.867948e-01 -7.545206e-05 -1.127199e-03
1.895621e+10 -1.485696e-04 -1.023260e-03 -2.501958e-01 -3.130681e-01 -2.501958e-01 -3.130681e-01 -1.485696e-04 -1.023260e-03
1.900620e+10 -1.260906e-04 -8.985022e-04 -3.524754e-01 -1.893534e-01 -3.524754e-01 -1.893534e-01 -1.260906e-04 -8.985022e-04
1.905619e+10 -2.293088e-05 -8.280818e-04 -3.978796e-01 -3.565830e-02 -3.978796e-01 -3.565830e-02 -2.293088e-05 -8.280818e-04
1.910618e+10 9.668408e-05 -8.529593e-04 -3.793069e-01 1.232642e-01 -3.793069e-01 1.232642e-01 9.668408e-05 -8.529593e-04
1.915617e+10 1.591848e-04 -9.551744e-04 -2.999421e-01 2.619019e-01 -2.999421e-01 2.619019e-01 1.591848e-04 -9.551744e-04
1.920616e+10 1.268887e-04 -1.069548e-03 -1.727123e-01 3.580788e-01 -1.727123e-01 3.580788e-01 1.268887e-04 -1.069548e-03
1.925615e+10 2.069444e-05 -1.124209e-03 -1.818172e-02 3.965014e-01 -1.818172e-02 3.965014e-01 2.069444e-05 -1.124209e-03
1.930614e+10 -9.341715e-05 -1.084750e-03 1.387711e-01 3.711906e-01 1.387711e-01 3.711906e-01 -9.341715e-05 -1.084750e-03
1.935613e+10 -1.453752e-04 -9.749002e-04 2.729589e-01 2.864108e-01 2.729589e-01 2.864108e-01 -1.453752e-04 -9.749002e-04
1.940612e+10 -1.040438e-04 -8.612919e-04 3.629270e-01 1.559533e-01 3.629270e-01 1.559533e-01 -1.040438e-04 -8.612919e-04
1.945611e+10 4.132945e-06 -8.120972e-04 3.943835e-01 8.930477e-04 3.943835e-01 8.930477e-04 4.132945e-06 -8.120972e-04
1.950610e+10 1.120169e-04 -8.551959e-04 3.624687e-01 -1.538155e-01 3.624687e-01 -1.538155e-01 1.120169e-04 -8.551959e-04
1.955609e+10 1.534266e-04 -9.615424e-04 2.725049e-01 -2.833538e-01 2.725049e-01 -2.833538e-01 1.534266e-04 -9.615424e-04
1.960608e+10 1.037183e-04 -1.063639e-03 1.391099e-01 -3.670207e-01 1.391099e-01 -3.670207e-01 1.037183e-04 -1.063639e-03
1.965607e+10 -5.578177e-06 -1.097379e-03 -1.617762e-02 -3.915397e-01 -1.617762e-02 -3.915397e-01 -5.578177e-06 -1.097379e-03
1.970606e+10 -1.067471e-04 -1.041331e-03 -1.683752e-01 -3.531656e-01 -1.683752e-01 -3.531656e-01 -1.067471e-04 -1.041331e-03
1.975605e+10 -1.378386e-04 -9.293881e-04 -2.930759e-01 -2.582550e-01 -2.930759e-01 -2.582550e-01 -1.378386e-04 -9.293881e-04
1.980604e+10 -8.060017e-05 -8.293451e-04 -3.703615e-01 -1.222143e-01 -3.703615e-01 -1.222143e-01 -8.060017e-05 -8.293451e-04
1.985603e+10 2.883079e-05 -8.009221e-04 -3.879840e-01 3.300098e-02 -3.879840e-01 3.300098e-02 2.883079e-05 -8.009221e-04
1.990602e+10 1.227186e-04 -8.592280e-04 -3.433059e-01 1.824288e-01 -3.433059e-01 1.824288e-01 1.227186e-04 -8.592280e-04
1.995601e+10 1.436398e-04 -9.660056e-04 -2.436925e-01 3.021151e-01 -2.436925e-01 3.021151e-01 1.436398e-04 -9.660056e-04
2.000600e+10 7.958688e-05 -1.053710e-03 -1.052992e-01 3.729529e-01 -1.052992e-01 3.729529e-01 7.958688e-05 -1.053710e-03
2.005599e+10 -2.918740e-05 -1.067277e-03 4.954865e-02 3.837326e-01 4.954865e-02 3.837326e-01 -2.918740e-05 -1.067277e-03
2.010598e+10 -1.154595e-04 -9.977533e-04 1.959567e-01 3.329152e-01 1.959567e-01 3.329152e-01 -1.154595e-04 -9.977533e-04
2.015597e+10 -1.265782e-04 -8.872616e-04 3.104633e-01 2.288484e-01 3.104633e-01 2.288484e-01 -1.265782e-04 -8.872616e-04
2.020596e+10 -5.659400e-05 -8.025786e-04 3.747992e-01 8.839647e-02 3.747992e-01 8.839647e-02 -5.659400e-05 -8.025786e-04
2.025595e+10 5.062606e-05 -7.938916e-04 3.788018e-01 -6.579289e-02 3.788018e-01 -6.579289e-02 5.062606e-05 -7.938916e-04
2.030594e+10 1.288751e-04 -8.642038e-04 3.220197e-01 -2.089396e-01 3.220197e-01 -2.089396e-01 1.288751e-04 -8.642038e-04
2.035593e+10 1.304728e-04 -9.680306e-04 2.137545e-01 -3.181134e-01 2.137545e-01 -3.181134e-01 1.304728e-04 -9.680306e-04
2.040592e+10 5.530151e-05 -1.039853e-03 7.153783e-02 -3.759067e-01 7.153783e-02 -3.759067e-01 5.530151e-05 -1.039853e-03
2.045591e+10 -4.966368e-05 -1.034536e-03 -8.170716e-02 -3.732098e-01 -8.170716e-02 -3.732098e-01 -4.966368e-05 -1.034536e-03
2.050590e+10 -1.197061e-04 -9.547810e-04 -2.213603e-01 -3.106462e-01 -2.213603e-01 -3.106462e-01 -1.197061e-04 -9.547810e-04
2.055589e+10 -1.122674e-04 -8.489282e-04 -3.250598e-01 -1.984418e-01 -3.250598e-01 -1.984418e-01 -1.122674e-04 -8.489282e-04
2.060588e+10 -3.280183e-05 -7.807809e-04 -3.762822e-01 -5.475422e-02 -3.762822e-01 -5.475422e-02 -3.280183e-05 -7.807809e-04
2.065587e+10 6.911523e-05 -7.902942e-04 -3.669752e-01 9.726551e-02 -3.669752e-01 9.726551e-02 6.911523e-05 -7.902942e-04
2.070586e+10 1.306984e-04 -8.693357e-04 -2.988222e-01 2.332024e-01 -2.988222e-01 2.332024e-01 1.306984e-04 -8.693357e-04
2.075585e+10 1.146161e-04 -9.672192e-04 -1.829424e-01 3.312983e-01 -1.829424e-01 3.312983e-01 1.146161e-04 -9.672192e-04
2.080584e+10 3.160263e-05 -1.022280e-03 -3.807643e-02 3.759345e-01 -3.807643e-02 3.759345e-01 3.160263e-05 -1.022280e-03
2.085583e+10 -6.667096e-05 -9.998237e-04 1.124434e-01 3.601178e-01 1.124434e-01 3.601178e-01 -6.667096e-05 -9.998237e-04
2.090582e+10 -1.197566e-04 -9.131079e-04 2.444509e-01 2.865755e-01 2.444509e-01 2.865755e-01 -1.197566e-04 -9.131079e-04
2.095581e+10 -9.560972e-05 -8.146635e-04 3.368261e-01 1.672872e-01 3.368261e-01 1.672872e-01 -9.560972e-05 -8.146635e-04
2.100580e+10 -9.925468e-06 -7.636287e-04 3.748731e-01 2.153438e-02 3.748731e-01 2.153438e-02 -9.925468e-06 -7.636287e-04
2.105579e+10 8.402788e-05 -7.893959e-04 3.526582e-01 -1.272167e-01 3.526582e-01 -1.272167e-01 8.402788e-05 -7.893959e-04
2.110578e+10 1.285099e-04 -8.739166e-04 2.739343e-01 -2.550920e-01 2.739343e-01 -2.550920e-01 1.285099e-04 -8.739166e-04
2.115577e+10 9.677920e-05 -9.633079e-04 1.515081e-01 -3.416415e-01 1.515081e-01 -3.416415e-01 9.677920e-05 -9.633079e-04
2.120576e+10 9.148610e-06 -1.001310e-03 5.157554e-03 -3.731090e-01 5.157554e-03 -3.731090e-01 9.148610e-06 -1.001310e-03
2.125575e+10 -8.000480e-05 -9.638269e-04 -1.415630e-01 -3.446182e-01 -1.415630e-01 -3.446182e-01 -8.000480e-05 -9.638269e-04
2.130574e+10 -1.159809e-04 -8.733443e-04 -2.651134e-01 -2.609274e-01 -2.651134e-01 -2.609274e-01 -1.159809e-04 -8.733443e-04
2.135573e+10 -7.731625e-05 -7.846148e-04 -3.457444e-01 -1.356360e-01 -3.457444e-01 -1.356360e-01 -7.731625e-05 -7.846148e-04
2.140572e+10 1.142182e-05 -7.507054e-04 -3.706540e-01 1.102533e-02 -3.706540e-01 1.102533e-02 1.142182e-05 -7.507054e-04
2.145571e+10 9.522294e-05 -7.904622e-04 -3.360198e-01 1.554603e-01 -3.360198e-01 1.554603e-01 9.522294e-05 -7.904622e-04
2.150570e+10 1.227218e-04 -8.773325e-04 -2.475839e-01 2.745037e-01 -2.475839e-01 2.745037e-01 1.227218e-04 -8.773325e-04
2.155569e+10 7.766837e-05 -9.561626e-04 -1.197020e-01 3.491360e-01 -1.197020e-01 3.491360e-01 7.766837e-05 -9.561626e-04
2.160568e+10 -1.149614e-05 -9.773526e-04 2.698622e-02 3.675217e-01 2.698622e-02 3.675217e-01 -1.149614e-05 -9.773526e-04
2.165567e+10 -8.958697e-05 -9.272233e-04 1.688884e-01 3.268864e-01 1.688884e-01 3.268864e-01 -8.958697e-05 -9.272233e-04
2.170566e+10 -1.088293e-04 -8.360060e-04 2.832534e-01 2.339328e-01 2.832534e-01 2.339328e-01 -1.088293e-04 -8.360060e-04
2.175565e+10 -5.808455e-05 -7.588063e-04 3.518186e-01 1.037369e-01 3.518186e-01 1.037369e-01 -5.808455e-05 -7.588063e-04
2.180564e+10 3.072539e-05 -7.415198e-04 3.637261e-01 -4.269781e-02 3.637261e-01 -4.269781e-02 3.072539e-05 -7.415198e-04
2.185563e+10 1.026817e-04 -7.927789e-04 3.172416e-01 -1.818275e-01 3.172416e-01 -1.818275e-01 1.026817e-04 -7.927789e-04
2.190562e+10 1.138168e-04 -8.790717e-04 2.200040e-01 -2.913536e-01 2.200040e-01 -2.913536e-01 1.138168e-04 -8.790717e-04
2.195561e+10 5.796649e-05 -9.457708e-04 8.777112e-02 -3.537960e-01 8.777112e-02 -3.537960e-01 5.796649e-05 -9.457708e-04
2.200560e+10 -2.986949e-05 -9.508814e-04 -5.813365e-02 -3.592828e-01 -5.813365e-02 -3.592828e-01 -2.986949e-05 -9.508814e-04
2.205559e+10 -9.545684e-05 -8.906647e-04 -1.942595e-01 -3.071100e-01 -1.942595e-01 -3.071100e-01 -9.545684e-05 -8.906647e-04
2.210558e+10 -9.881329e-05 -8.015065e-04 -2.987973e-01 -2.058268e-01 -2.987973e-01 -2.058268e-01 -9.881329e-05 -8.015065e-04
2.215557e+10 -3.857946e-05 -7.371489e-04 -3.550732e-01 -7.183466e-02 -3.550732e-01 -7.183466e-02 -3.857946e-05 -7.371489e-04
2.220556e+10 4.757568e-05 -7.355269e-04 -3.542078e-01 7.326799e-02 -3.542078e-01 7.326799e-02 4.757568e-05 -7.355269e-04
2.225555e+10 1.064976e-04 -7.956703e-04 -2.965167e-01 2.061671e-01 -2.965167e-01 2.061671e-01 1.064976e-04 -7.956703e-04
2.230554e+10 1.023286e-04 -8.787298e-04 -1.914312e-01 3.055785e-01 -1.914312e-01 3.055785e-01 1.023286e-04 -8.787298e-04
2.235553e+10 3.831519e-05 -9.322310e-04 -5.595731e-02 3.556564e-01 -5.595731e-02 3.556564e-01 3.831519e-05 -9.322310e-04
2.240552e+10 -4.561623e-05 -9.224186e-04 8.807617e-02 3.485188e-01 8.807617e-02 3.485188e-01 -4.561623e-05 -9.224186e-04
2.245551e+10 -9.776022e-05 -8.547589e-04 2.175345e-01 2.854872e-01 2.175345e-01 2.854872e-01 -9.776022e-05 -8.547589e-04
2.250550e+10 -8.648482e-05 -7.701530e-04 3.116926e-01 1.768468e-01 3.116926e-01 1.768468e-01 -8.648482e-05 -7.701530e-04
2.255549e+10 -1.941670e-05 -7.194514e-04 3.555530e-01 4.016811e-02 3.555530e-01 4.016811e-02 -1.941670e-05 -7.194514e-04
2.260548e+10 6.167113e-05 -7.321468e-04 3.422337e-01 -1.025341e-01 3.422337e-01 -1.025341e-01 6.167113e-05 -7.321468e-04
2.265547e+10 1.068646e-04 -7.985148e-04 2.740478e-01 -2.283466e-01 2.740478e-01 -2.283466e-01 1.068646e-04 -7.985148e-04
2.270546e+10 8.882187e-05 -8.760122e-04 1.621036e-01 -3.171363e-01 1.621036e-01 -3.171363e-01 8.882187e-05 -8.760122e-04
2.275545e+10 1.929981e-05 -9.157398e-04 2.449584e-02 -3.547717e-01 2.449584e-02 -3.547717e-01 1.929981e-05 -9.157398e-04
2.280544e+10 -5.848934e-05 -8.925137e-04 -1.166191e-01 -3.353720e-01 -1.166191e-01 -3.353720e-01 -5.848934e-05 -8.925137e-04
2.285543e+10 -9.673614e-05 -8.200554e-04 -2.385902e-01 -2.622250e-01 -2.385902e-01 -2.622250e-01 -9.673614e-05 -8.200554e-04
2.290542e+10 -7.241727e-05 -7.421461e-04 -3.219074e-01 -1.472312e-01 -3.219074e-01 -1.472312e-01 -7.241727e-05 -7.421461e-04
2.295541e+10 -1.149072e-06 -7.054344e-04 -3.533221e-01 -8.968530e-03 -3.533221e-01 -8.968530e-03 -1.149072e-06 -7.054344e-04
2.300540e+10 7.281783e-05 -7.307846e-04 -3.279535e-01 1.303089e-01 -3.279535e-01 1.303089e-01 7.281783e-05 -7.307846e-04
2.305539e+10 1.040622e-04 -8.007581e-04 -2.500457e-01 2.482527e-01 -2.500457e-01 2.482527e-01 1.040622e-04 -8.007581e-04
2.310538e+10 7.387302e-05 -8.707325e-04 -1.322593e-01 3.260053e-01 -1.322593e-01 3.260053e-01 7.387302e-05 -8.707325e-04
2.315537e+10 1.437038e-06 -8.965772e-04 6.386285e-03 3.512154e-01 6.386285e-03 3.512154e-01 1.437038e-06 -8.965772e-04
2.320536e+10 -6.834805e-05 -8.617246e-04 1.435828e-01 3.199991e-01 1.435828e-01 3.199991e-01 -6.834805e-05 -8.617246e-04
2.325535e+10 -9.270197e-05 -7.870336e-04 2.573231e-01 2.375373e-01 2.573231e-01 2.375373e-01 -9.270197e-05 -7.870336e-04
2.330534e+10 -5.718678e-05 -7.175822e-04 3.294304e-01 1.172171e-01 3.294304e-01 1.172171e-01 -5.718678e-05 -7.175822e-04
2.335533e+10 1.574430e-05 -6.947450e-04 3.484632e-01 -2.154177e-02 3.484632e-01 -2.154177e-02 1.574430e-05 -6.947450e-04
2.340532e+10 8.092604e-05 -7.308481e-04 3.115301e-01 -1.564206e-01 3.115301e-01 -1.564206e-01 8.092604e-05 -7.308481e-04
2.345531e+10 9.844069e-05 -8.019228e-04 2.247275e-01 -2.657914e-01 2.247275e-01 -2.657914e-01 9.844069e-05 -8.019228e-04
2.350530e+10 5.805271e-05 -8.628082e-04 1.021342e-01 -3.321845e-01 1.021342e-01 -3.321845e-01 5.805271e-05 -8.628082e-04
2.355529e+10 -1.483438e-05 -8.750907e-04 -3.647178e-02 -3.450789e-01 -3.647178e-02 -3.450789e-01 -1.483438e-05 -8.750907e-04
2.360528e+10 -7.515300e-05 -8.306003e-04 -1.688036e-01 -3.025690e-01 -1.688036e-01 -3.025690e-01 -7.515300e-05 -8.306003e-04
2.365527e+10 -8.603761e-05 -7.560942e-04 -2.736491e-01 -2.116439e-01 -2.736491e-01 -2.116439e-01 -8.603761e-05 -7.560942e-04
2.370526e+10 -4.135521e-05 -6.964591e-04 -3.342704e-01 -8.703922e-02 -3.342704e-01 -8.703922e-02 -4.135521e-05 -6.964591e-04
2.375525e+10 3.086577e-05 -6.869731e-04 -3.410763e-01 5.115087e-02 -3.410763e-01 5.115087e-02 3.086577e-05 -6.869731e-04
2.380524e+10 8.600414e-05 -7.317642e-04 -2.931385e-01 1.807138e-01 -2.931385e-01 1.807138e-01 8.600414e-05 -7.317642e-04
2.385523e+10 9.040471e-05 -8.016156e-04 -1.983147e-01 2.808886e-01 -1.983147e-01 2.808886e-01 9.040471e-05 -8.016156e-04
2.390522e+10 4.190945e-05 -8.522542e-04 -7.196098e-02 3.356925e-01 -7.196098e-02 3.356925e-01 4.190945e-05 -8.522542e-04
2.395521e+10 -2.915993e-05 -8.516794e-04 6.555445e-02 3.364706e-01 6.555445e-02 3.364706e-01 -2.915993e-05 -8.516794e-04
2.400520e+10 -7.895894e-05 -7.996650e-04 1.921346e-01 2.832621e-01 1.921346e-01 2.832621e-01 -7.895894e-05 -7.996650e-04
2.405519e+10 -7.716918e-05 -7.275535e-04 2.875039e-01 1.847678e-01 2.875039e-01 1.847678e-01 -7.716918e-05 -7.275535e-04
2.410518e+10 -2.545493e-05 -6.786836e-04 3.364560e-01 5.692759e-02 3.364560e-01 5.692759e-02 -2.545493e-05 -6.786836e-04
2.415517e+10 4.390402e-05 -6.816674e-04 3.312777e-01 -7.965858e-02 3.312777e-01 -7.965858e-02 4.390402e-05 -6.816674e-04
2.420516e+10 8.815011e-05 -7.329942e-04 2.729639e-01 -2.030502e-01 2.729639e-01 -2.030502e-01 8.815011e-05 -7.329942e-04
2.425515e+10 8.039697e-05 -7.995311e-04 1.710316e-01 -2.934900e-01 1.710316e-01 -2.934900e-01 8.039697e-05 -7.995311e-04
2.430514e+10 2.595543e-05 -8.391735e-04 4.196697e-02 -3.365675e-01 4.196697e-02 -3.365675e-01 2.595543e-05 -8.391735e-04
2.435513e+10 -4.127272e-05 -8.267773e-04 -9.344038e-02 -3.255146e-01 -9.344038e-02 -3.255146e-01 -4.127272e-05 -8.267773e-04
2.440512e+10 -7.990529e-05 -7.694041e-04 -2.134462e-01 -2.622684e-01 -2.134462e-01 -2.622684e-01 -7.990529e-05 -7.694041e-04
2.445511e+10 -6.655262e-05 -7.016410e-04 -2.988432e-01 -1.571341e-01 -2.988432e-01 -1.571341e-01 -6.655262e-05 -7.016410e-04
2.450510e+10 -9.975674e-06 -6.640814e-04 -3.360345e-01 -2.710641e-02 -3.360345e-01 -2.710641e-02 -9.975674e-06 -6.640814e-04
2.455509e+10 5.463599e-05 -6.783518e-04 -3.191989e-01 1.068776e-01 -3.191989e-01 1.068776e-01 5.463599e-05 -6.783518e-04
2.460508e+10 8.754128e-05 -7.340455e-04 -2.512005e-01 2.233093e-01 -2.512005e-01 2.233093e-01 8.754128e-05 -7.340455e-04
2.465507e+10 6.888202e-05 -7.954533e-04 -1.431037e-01 3.035609e-01 -1.431037e-01 3.035609e-01 6.888202e-05 -7.954533e-04
2.470506e+10 1.065449e-05 -8.237466e-04 -1.237281e-02 3.348660e-01 -1.237281e-02 3.348660e-01 1.065449e-05 -8.237466e-04
2.475505e+10 -5.099400e-05 -8.008371e-04 1.199492e-01 3.123493e-01 1.199492e-01 3.123493e-01 -5.099400e-05 -8.008371e-04
2.480504e+10 -7.820500e-05 -7.402531e-04 2.326272e-01 2.397857e-01 2.326272e-01 2.397857e-01 -7.820500e-05 -7.402531e-04
2.485503e+10 -5.465793e-05 -6.784988e-04 3.076421e-01 1.289684e-01 3.076421e-01 1.289684e-01 -5.465793e-05 -6.784988e-04
2.490502e+10 4.646318e-06 -6.524086e-04 3.330716e-01 -2.207580e-03 3.330716e-01 -2.207580e-03 4.646318e-06 -6.524086e-04
2.495501e+10 6.292611e-05 -6.765406e-04 3.049850e-01 -1.326346e-01 3.049850e-01 -1.326346e-01 6.292611e-05 -6.765406e-04
2.500500e+10 8.442250e-05 -7.344825e-04 2.280496e-01 -2.413888e-01 2.280496e-01 -2.413888e-01 8.442250e-05 -7.344825e-04
2.505499e+10 5.633087e-05 -7.892539e-04 1.147561e-01 -3.110865e-01 1.147561e-01 -3.110865e-01 5.633087e-05 -7.892539e-04
2.510498e+10 -3.587484e-06 -8.062192e-04 -1.660905e-02 -3.306623e-01 -1.660905e-02 -3.306623e-01 -3.587484e-06 -8.062192e-04
2.515497e+10 -5.823123e-05 -7.743151e-04 -1.449148e-01 -2.971262e-01 -1.449148e-01 -2.971262e-01 -5.823123e-05 -7.743151e-04
2.520496e+10 -7.413229e-05 -7.125882e-04 -2.495844e-01 -2.160183e-01 -2.495844e-01 -2.160183e-01 -7.413229e-05 -7.125882e-04
2.525495e+10 -4.195416e-05 -6.581849e-04 -3.138952e-01 -1.004946e-01 -3.138952e-01 -1.004946e-01 -4.195416e-05 -6.581849e-04
2.530494e+10 1.803669e-05 -6.433640e-04 -3.276501e-01 3.080653e-02 -3.276501e-01 3.080653e-02 1.803669e-05 -6.433640e-04
2.535493e+10 6.872307e-05 -6.757538e-04 -2.887937e-01 1.567712e-01 -2.887937e-01 1.567712e-01 6.872307e-05 -6.757538e-04
2.540492e+10 7.909341e-05 -7.339337e-04 -2.037180e-01 2.572051e-01 -2.037180e-01 2.572051e-01 7.909341e-05 -7.339337e-04
2.545491e+10 4.320654e-05 -7.808886e-04 -8.621138e-02 3.160707e-01 -8.621138e-02 3.160707e-01 4.320654e-05 -7.808886e-04
2.550490e+10 -1.642977e-05 -7.868891e-04 4.477568e-02 3.240478e-01 4.477568e-02 3.240478e-01 -1.642977e-05 -7.868891e-04
2.555489e+10 -6.297362e-05 -7.476571e-04 1.681867e-01 2.800087e-01 1.681867e-01 2.800087e-01 -6.297362e-05 -7.476571e-04
2.560488e+10 -6.800949e-05 -6.867200e-04 2.642435e-01 1.911751e-01 2.642435e-01 1.911751e-01 -6.800949e-05 -6.867200e-04
2.565487e+10 -2.889565e-05 -6.406774e-04 3.176163e-01 7.193370e-02 3.176163e-01 7.193370e-02 -2.889565e-05 -6.406774e-04
2.570486e+10 2.988892e-05 -6.366023e-04 3.198691e-01 -5.849279e-02 3.198691e-01 -5.849279e-02 2.988892e-05 -6.366023e-04
2.575485e+10 7.205445e-05 -6.755296e-04 2.707934e-01 -1.791447e-01 2.707934e-01 -1.791447e-01 7.205445e-05 -6.755296e-04
2.580484e+10 7.189511e-05 -7.320974e-04 1.784163e-01 -2.706932e-01 1.784163e-01 -2.706932e-01 7.189511e-05 -7.320974e-04
2.585483e+10 2.995110e-05 -7.703907e-04 5.768854e-02 -3.185366e-01 5.768854e-02 -3.185366e-01 2.995110e-05 -7.703907e-04
2.590482e+10 -2.760149e-05 -7.660931e-04 -7.193499e-02 -3.151291e-01 -7.193499e-02 -3.151291e-01 -2.760149e-05 -7.660931e-04
2.595481e+10 -6.528582e-05 -7.212854e-04 -1.896302e-01 -2.611702e-01 -1.896302e-01 -2.611702e-01 -6.528582e-05 -7.212854e-04
2.600480e+10 -6.019364e-05 -6.628890e-04 -2.765490e-01 -1.654681e-01 -2.765490e-01 -1.654681e-01 -6.019364e-05 -6.628890e-04
2.605479e+10 -1.590992e-05 -6.258816e-04 -3.188373e-01 -4.350233e-02 -3.188373e-01 -4.350233e-02 -1.590992e-05 -6.258816e-04
2.610478e+10 3.996782e-05 -6.317477e-04 -3.098431e-01 8.508009e-02 -3.098431e-01 8.508009e-02 3.996782e-05 -6.317477e-04
2.615477e+10 7.301941e-05 -6.754370e-04 -2.511622e-01 1.996289e-01 -2.511622e-01 1.996289e-01 7.301941e-05 -6.754370e-04
2.620476e+10 6.319668e-05 -7.287445e-04 -1.523575e-01 2.818069e-01 -1.523575e-01 2.818069e-01 6.319668e-05 -7.287445e-04
2.625475e+10 1.697430e-05 -7.578641e-04 -2.940126e-02 3.185253e-01 -2.940126e-02 3.185253e-01 1.697430e-05 -7.578641e-04
2.630474e+10 -3.690396e-05 -7.441933e-04 9.790684e-02 3.040278e-01 9.790684e-02 3.040278e-01 -3.690396e-05 -7.441933e-04
2.635473e+10 -6.529987e-05 -6.955885e-04 2.091277e-01 2.407928e-01 2.091277e-01 2.407928e-01 -6.529987e-05 -6.955885e-04
2.640472e+10 -5.106311e-05 -6.412639e-04 2.864641e-01 1.391110e-01 2.864641e-01 1.391110e-01 -5.106311e-05 -6.412639e-04
2.645471e+10 -3.387148e-06 -6.136385e-04 3.176082e-01 1.541091e-02 3.176082e-01 1.541091e-02 -3.387148e-06 -6.136385e-04
2.650470e+10 4.811064e-05 -6.284069e-04 2.977003e-01 -1.103947e-01 2.977003e-01 -1.103947e-01 4.811064e-05 -6.284069e-04
2.655469e+10 7.177994e-05 -6.750847e-04 2.300860e-01 -2.181145e-01 2.300860e-01 -2.181145e-01 7.177994e-05 -6.750847e-04
2.660468e+10 5.338200e-05 -7.237188e-04 1.257552e-01 -2.905188e-01 1.257552e-01 -2.905188e-01 5.338200e-05 -7.237188e-04
2.665467e+10 4.644137e-06 -7.434736e-04 1.556454e-03 -3.160952e-01 1.556454e-03 -3.160952e-01 4.644137e-06 -7.434736e-04
2.670466e+10 -4.421064e-05 -7.215641e-04 -1.225241e-01 -2.908788e-01 -1.225241e-01 -2.908788e-01 -4.421064e-05 -7.215641e-04
2.675465e+10 -6.320577e-05 -6.709113e-04 -2.265784e-01 -2.190659e-01 -2.265784e-01 -2.190659e-01 -6.320577e-05 -6.709113e-04
2.680464e+10 -4.100467e-05 -6.219424e-04 -2.939705e-01 -1.123168e-01 -2.939705e-01 -1.123168e-01 -4.100467e-05 -6.219424e-04
2.685463e+10 8.328283e-06 -6.037340e-04 -3.139959e-01 1.213753e-02 -3.139959e-01 1.213753e-02 8.328283e-06 -6.037340e-04
2.690462e+10 5.422604e-05 -6.261819e-04 -2.835818e-01 1.342763e-01 -2.835818e-01 1.342763e-01 5.422604e-05 -6.261819e-04
2.695461e+10 6.855100e-05 -6.741302e-04 -2.077572e-01 2.345096e-01 -2.077572e-01 2.345096e-01 6.855100e-05 -6.741302e-04
2.700460e+10 4.283721e-05 -7.169355e-04 -9.882216e-02 2.968198e-01 -9.882216e-02 2.968198e-01 4.283721e-05 -7.169355e-04
2.705459e+10 -6.720726e-06 -7.274349e-04 2.564705e-02 3.113214e-01 2.564705e-02 3.113214e-01 -6.720726e-06 -7.274349e-04
2.710458e+10 -4.946507e-05 -6.985794e-04 1.456337e-01 2.758288e-01 1.456337e-01 2.758288e-01 -4.946507e-05 -6.985794e-04
2.715457e+10 -5.924121e-05 -6.475485e-04 2.418993e-01 1.961845e-01 2.418993e-01 1.961845e-01 -5.924121e-05 -6.475485e-04
2.720456e+10 -3.040138e-05 -6.049534e-04 2.990683e-01 8.529734e-02 2.990683e-01 8.529734e-02 -3.040138e-05 -6.049534e-04
2.725455e+10 1.894430e-05 -5.959097e-04 3.080834e-01 -3.894870e-02 3.080834e-01 -3.894870e-02 1.894430e-05 -5.959097e-04
2.730454e+10 5.829100e-05 -6.246820e-04 2.676399e-01 -1.565792e-01 2.676399e-01 -1.565792e-01 5.829100e-05 -6.246820e-04
2.735453e+10 6.358984e-05 -6.722848e-04 1.843729e-01 -2.487400e-01 1.843729e-01 -2.487400e-01 6.358984e-05 -6.722848e-04
2.740452e+10 3.193908e-05 -7.083777e-04 7.176840e-02 -3.007191e-01 7.176840e-02 -3.007191e-01 3.193908e-05 -7.083777e-04
2.745451e+10 -1.685637e-05 -7.100039e-04 -5.201981e-02 -3.042947e-01 -5.201981e-02 -3.042947e-01 -1.685637e-05 -7.100039e-04
2.750450e+10 -5.267691e-05 -6.756019e-04 -1.670971e-01 -2.590357e-01 -1.670971e-01 -2.590357e-01 -5.267691e-05 -6.756019e-04
2.755449e+10 -5.368068e-05 -6.257398e-04 -2.550252e-01 -1.723474e-01 -2.550252e-01 -1.723474e-01 -5.368068e-05 -6.257398e-04
2.760448e+10 -1.962153e-05 -5.902614e-04 -3.017758e-01 -5.826089e-02 -3.017758e-01 -5.826089e-02 -1.962153e-05 -5.902614e-04
2.765447e+10 2.822556e-05 -5.898737e-04 -2.999689e-01 6.483830e-02 -2.999689e-01 6.483830e-02 2.822556e-05 -5.898737e-04
2.770446e+10 6.034599e-05 -6.235342e-04 -2.500372e-01 1.771725e-01 -2.500372e-01 1.771725e-01 6.034599e-05 -6.235342e-04
2.775445e+10 5.718495e-05 -6.693180e-04 -1.601335e-01 2.607494e-01 -1.601335e-01 2.607494e-01 5.718495e-05 -6.693180e-04
2.780444e+10 2.104454e-05 -6.980910e-04 -4.480017e-02 3.022434e-01 -4.480017e-02 3.022434e-01 2.104454e-05 -6.980910e-04
2.785443e+10 -2.555709e-05 -6.914655e-04 7.738296e-02 2.951205e-01 7.738296e-02 2.951205e-01 -2.555709e-05 -6.914655e-04
2.790442e+10 -5.391631e-05 -6.529724e-04 1.867915e-01 2.406662e-01 1.867915e-01 2.406662e-01 -5.391631e-05 -6.529724e-04
2.795441e+10 -4.682435e-05 -6.056664e-04 2.659084e-01 1.477563e-01 2.659084e-01 1.477563e-01 -4.682435e-05 -6.056664e-04
2.800440e+10 -9.008888e-06 -5.777727e-04 3.021281e-01 3.141112e-02 3.021281e-01 3.141112e-02 -9.008888e-06 -5.777727e-04
2.805439e+10 3.599593e-05 -5.853116e-04 2.897648e-01 -8.963317e-02 2.897648e-01 -8.963317e-02 3.599593e-05 -5.853116e-04
2.810438e+10 6.048868e-05 -6.223929e-04 2.309447e-01 -1.959412e-01 2.309447e-01 -1.959412e-01 6.048868e-05 -6.223929e-04
2.815437e+10 4.964502e-05 -6.650592e-04 1.352413e-01 -2.704990e-01 1.352413e-01 -2.704990e-01 4.964502e-05 -6.650592e-04
2.820436e+10 1.048171e-05 -6.861770e-04 1.811827e-02 -3.014367e-01 1.811827e-02 -3.014367e-01 1.048171e-05 -6.861770e-04
2.825435e+10 -3.267682e-05 -6.721224e-04 -1.015693e-01 -2.839179e-01 -1.015693e-01 -2.839179e-01 -3.267682e-05 -6.721224e-04
2.830434e+10 -5.330698e-05 -6.310015e-04 -2.046099e-01 -2.208952e-01 -2.046099e-01 -2.208952e-01 -5.330698e-05 -6.310015e-04
2.835433e+10 -3.898709e-05 -5.874502e-04 -2.745193e-01 -1.226136e-01 -2.745193e-01 -1.226136e-01 -3.898709e-05 -5.874502e-04
2.840432e+10 1.125560e-06 -5.673424e-04 -3.001774e-01 -4.945633e-03 -3.001774e-01 -4.945633e-03 1.125560e-06 -5.673424e-04
2.845431e+10 4.213891e-05 -5.818976e-04 -2.775964e-01 1.131722e-01 -2.775964e-01 1.131722e-01 4.213891e-05 -5.818976e-04
2.850430e+10 5.886646e-05 -6.209473e-04 -2.105405e-01 2.127866e-01 -2.105405e-01 2.127866e-01 5.886646e-05 -6.209473e-04
2.855429e+10 4.128809e-05 -6.593977e-04 -1.098986e-01 2.779682e-01 -1.098986e-01 2.779682e-01 4.128809e-05 -6.593977e-04
2.860428e+10 5.424163e-07 -6.727854e-04 8.083254e-03 2.983591e-01 8.083254e-03 2.983591e-01 5.424163e-07 -6.727854e-04
2.865427e+10 -3.812872e-05 -6.522846e-04 1.244241e-01 2.708180e-01 1.244241e-01 2.708180e-01 -3.812872e-05 -6.522846e-04
2.870426e+10 -5.101827e-05 -6.099622e-04 2.204617e-01 1.999039e-01 2.204617e-01 1.999039e-01 -5.101827e-05 -6.099622e-04
2.875425e+10 -3.048797e-05 -5.711550e-04 2.808458e-01 9.712123e-02 2.808458e-01 9.712123e-02 -3.048797e-05 -5.711550e-04
2.880424e+10 1.051023e-05 -5.587823e-04 2.959917e-01 -2.094540e-02 2.959917e-01 -2.094540e-02 1.051023e-05 -5.587823e-04
2.885423e+10 4.659642e-05 -5.793045e-04 2.636008e-01 -1.353076e-01 2.636008e-01 -1.353076e-01 4.659642e-05 -5.793045e-04
2.890422e+10 5.566809e-05 -6.189281e-04 1.890086e-01 -2.276264e-01 1.890086e-01 -2.276264e-01 5.566809e-05 -6.189281e-04
2.895421e+10 3.243139e-05 -6.522814e-04 8.430650e-02 -2.831534e-01 8.430650e-02 -2.831534e-01 3.243139e-05 -6.522814e-04
2.900420e+10 -8.523607e-06 -6.581054e-04 -3.361840e-02 -2.930862e-01 -3.361840e-02 -2.930862e-01 -8.523607e-06 -6.581054e-04
2.905419e+10 -4.188306e-05 -6.322593e-04 -1.458063e-01 -2.559634e-01 -1.458063e-01 -2.559634e-01 -4.188306e-05 -6.322593e-04
2.910418e+10 -4.725646e-05 -5.900846e-04 -2.342732e-01 -1.778784e-01 -2.342732e-01 -1.778784e-01 -4.725646e-05 -5.900846e-04
2.915417e+10 -2.164035e-05 -5.567884e-04 -2.848932e-01 -7.147903e-02 -2.848932e-01 -7.147903e-02 -2.164035e-05 -5.567884e-04
2.920416e+10 1.891790e-05 -5.518702e-04 -2.896541e-01 4.608045e-02 -2.896541e-01 4.608045e-02 1.891790e-05 -5.518702e-04
2.925415e+10 4.936582e-05 -5.772136e-04 -2.479253e-01 1.559050e-01 -2.479253e-01 1.559050e-01 4.936582e-05 -5.772136e-04
2.930414e+10 5.111473e-05 -6.161116e-04 -1.665370e-01 2.403954e-01 -1.665370e-01 2.403954e-01 5.111473e-05 -6.161116e-04
2.935413e+10 2.338188e-05 -6.437126e-04 -5.866333e-02 2.860684e-01 -5.866333e-02 2.860684e-01 2.338188e-05 -6.437126e-04
2.940412e+10 -1.651282e-05 -6.423570e-04 5.831040e-02 2.857083e-01 5.831040e-02 2.857083e-01 -1.651282e-05 -6.423570e-04
2.945411e+10 -4.396356e-05 -6.123415e-04 1.655890e-01 2.395063e-01 1.655890e-01 2.395063e-01 -4.396356e-05 -6.123415e-04
2.950410e+10 -4.225568e-05 -5.715525e-04 2.459874e-01 1.550084e-01 2.459874e-01 1.550084e-01 -4.225568e-05 -5.715525e-04
2.955409e+10 -1.274305e-05 -5.443062e-04 2.866834e-01 4.588346e-02 2.866834e-01 4.588346e-02 -1.274305e-05 -5.443062e-04
2.960408e+10 2.616899e-05 -5.463586e-04 2.812620e-01 -7.028775e-02 2.812620e-01 -7.028775e-02 2.616899e-05 -5.463586e-04
2.965407e+10 5.049561e-05 -5.753234e-04 2.307267e-01 -1.748448e-01 2.307267e-01 -1.748448e-01 5.049561e-05 -5.753234e-04
2.970406e+10 4.545086e-05 -6.123228e-04 1.433165e-01 -2.510449e-01 1.433165e-01 -2.510449e-01 4.545086e-05 -6.123228e-04
2.975405e+10 1.442795e-05 -6.337442e-04 3.316325e-02 -2.867434e-01 3.316325e-02 -2.867434e-01 1.442795e-05 -6.337442e-04
2.980404e+10 -2.327030e-05 -6.257812e-04 -8.199278e-02 -2.763295e-01 -8.199278e-02 -2.763295e-01 -2.327030e-05 -6.257812e-04
2.985403e+10 -4.444246e-05 -5.928063e-04 -1.836600e-01 -2.216073e-01 -1.836600e-01 -2.216073e-01 -4.444246e-05 -5.928063e-04
2.990402e+10 -3.626873e-05 -5.545008e-04 -2.555644e-01 -1.314853e-01 -2.555644e-01 -1.314853e-01 -3.626873e-05 -5.545008e-04
2.995401e+10 -4.072551e-06 -5.336174e-04 -2.862548e-01 -2.052609e-02 -2.862548e-01 -2.052609e-02 -4.072551e-06 -5.336174e-04
3.000400e+10 3.213311e-05 -5.419840e-04 -2.709256e-01 9.340640e-02 -2.709256e-01 9.340640e-02 3.213311e-05 -5.419840e-04
3.005399e+10 5.007996e-05 -5.733564e-04 -2.121694e-01 1.920227e-01 -2.121694e-01 1.920227e-01 5.007996e-05 -5.733564e-04
3.010398e+10 3.893503e-05 -6.074362e-04 -1.195390e-01 2.595436e-01 -1.195390e-01 2.595436e-01 3.893503e-05 -6.074362e-04
3.015397e+10 5.832243e-06 -6.224735e-04 -7.994961e-03 2.852247e-01 -7.994961e-03 2.852247e-01 5.832243e-06 -6.224735e-04
3.020396e+10 -2.869053e-05 -6.086316e-04 1.045104e-01 2.650661e-01 1.045104e-01 2.650661e-01 -2.869053e-05 -6.086316e-04
3.025395e+10 -4.343453e-05 -5.739016e-04 1.999224e-01 2.024343e-01 1.999224e-01 2.024343e-01 -4.343453e-05 -5.739016e-04
3.030394e+10 -2.955804e-05 -5.390156e-04 2.629810e-01 1.075013e-01 2.629810e-01 1.075013e-01 -2.955804e-05 -5.390156e-04
3.035393e+10 4.123498e-06 -5.245906e-04 2.836614e-01 -4.407619e-03 2.836614e-01 -4.407619e-03 4.123498e-06 -5.245906e-04
3.040392e+10 3.672914e-05 -5.384759e-04 2.587673e-01 -1.152873e-01 2.587673e-01 -1.152873e-01 3.672914e-05 -5.384759e-04
3.045391e+10 4.825225e-05 -5.710662e-04 1.924241e-01 -2.073495e-01 1.924241e-01 -2.073495e-01 4.825225e-05 -5.710662e-04
3.050390e+10 3.183110e-05 -6.013758e-04 9.539623e-02 -2.658765e-01 9.539623e-02 -2.658765e-01 3.183110e-05 -6.013758e-04
3.055389e+10 -2.174174e-06 -6.100356e-04 -1.665963e-02 -2.815740e-01 -1.665963e-02 -2.815740e-01 -2.174174e-06 -6.100356e-04
3.060388e+10 -3.271668e-05 -5.911650e-04 -1.257204e-01 -2.520461e-01 -1.257204e-01 -2.520461e-01 -3.271668e-05 -5.911650e-04
3.065387e+10 -4.109029e-05 -5.558430e-04 -2.142952e-01 -1.821608e-01 -2.142952e-01 -1.821608e-01 -4.109029e-05 -5.558430e-04
3.070386e+10 -2.238707e-05 -5.251349e-04 -2.682308e-01 -8.324743e-02 -2.682308e-01 -8.324743e-02 -2.238707e-05 -5.251349e-04
3.075385e+10 1.163143e-05 -5.170604e-04 -2.789723e-01 2.873958e-02 -2.789723e-01 2.873958e-02 1.163143e-05 -5.170604e-04
3.080384e+10 3.992371e-05 -5.355649e-04 -2.449202e-01 1.357938e-01 -2.449202e-01 1.357938e-01 3.992371e-05 -5.355649e-04
3.085383e+10 4.517800e-05 -5.682413e-04 -1.716668e-01 2.207520e-01 -1.716668e-01 2.207520e-01 4.517800e-05 -5.682413e-04
3.090382e+10 2.439985e-05 -5.941131e-04 -7.107846e-02 2.700456e-01 -7.107846e-02 2.700456e-01 2.439985e-05 -5.941131e-04
3.095381e+10 -9.396247e-06 -5.965962e-04 4.062656e-02 2.758673e-01 4.062656e-02 2.758673e-01 -9.396247e-06 -5.965962e-04
3.100380e+10 -3.533846e-05 -5.736336e-04 1.454927e-01 2.374076e-01 1.454927e-01 2.374076e-01 -3.533846e-05 -5.736336e-04
3.105379e+10 -3.758868e-05 -5.388094e-04 2.267132e-01 1.609646e-01 2.267132e-01 1.609646e-01 -3.758868e-05 -5.388094e-04
3.110378e+10 -1.501234e-05 -5.128514e-04 2.713235e-01 5.891255e-02 2.713235e-01 5.891255e-02 -1.501234e-05 -5.128514e-04
3.115377e+10 1.827530e-05 -5.108357e-04 2.722705e-01 -5.230024e-02 2.722705e-01 -5.230024e-02 1.827530e-05 -5.108357e-04
3.120376e+10 4.172850e-05 -5.329909e-04 2.295271e-01 -1.548029e-01 2.295271e-01 -1.548029e-01 4.172850e-05 -5.329909e-04
3.125375e+10 4.104742e-05 -5.647093e-04 1.500768e-01 -2.321732e-01 1.500768e-01 -2.321732e-01 4.104742e-05 -5.647093e-04
3.130374e+10 1.689147e-05 -5.856640e-04 4.677278e-02 -2.720684e-01 4.677278e-02 -2.720684e-01 1.689147e-05 -5.856640e-04
3.135373e+10 -1.567796e-05 -5.823441e-04 -6.374094e-02 -2.681943e-01 -6.374094e-02 -2.681943e-01 -1.567796e-05 -5.823441e-04
3.140372e+10 -3.658880e-05 -5.562775e-04 -1.637112e-01 -2.212977e-01 -1.637112e-01 -2.212977e-01 -3.658880e-05 -5.562775e-04
3.145371e+10 -3.312950e-05 -5.229404e-04 -2.371272e-01 -1.390261e-01 -2.371272e-01 -1.390261e-01 -3.312950e-05 -5.229404e-04
3.150370e+10 -7.676255e-06 -5.021156e-04 -2.722849e-01 -3.468181e-02 -2.722849e-01 -3.468181e-02 -7.676255e-06 -5.021156e-04
3.155369e+10 2.391916e-05 -5.057063e-04 -2.636521e-01 7.492962e-02 -2.636521e-01 7.492962e-02 2.391916e-05 -5.057063e-04
3.160368e+10 4.219635e-05 -5.305100e-04 -2.127390e-01 1.722053e-01 -2.127390e-01 1.722053e-01 4.219635e-05 -5.305100e-04
3.165367e+10 3.606773e-05 -5.603383e-04 -1.278355e-01 2.415718e-01 -1.278355e-01 2.415718e-01 3.606773e-05 -5.603383e-04
3.170366e+10 9.538801e-06 -5.760849e-04 -2.266203e-02 2.719786e-01 -2.266203e-02 2.719786e-01 9.538801e-06 -5.760849e-04
3.175365e+10 -2.090396e-05 -5.674835e-04 8.584797e-02 2.586576e-01 8.584797e-02 2.586576e-01 -2.090396e-05 -5.674835e-04
3.180364e+10 -3.653948e-05 -5.393183e-04 1.802738e-01 2.038709e-01 1.802738e-01 2.038709e-01 -3.653948e-05 -5.393183e-04
3.185363e+10 -2.792575e-05 -5.083351e-04 2.455043e-01 1.165277e-01 2.455043e-01 1.165277e-01 -2.792575e-05 -5.083351e-04
3.190362e+10 -6.009622e-07 -4.928409e-04 2.711559e-01 1.073541e-02 2.711559e-01 1.073541e-02 -6.009622e-07 -4.928409e-04
3.195361e+10 2.846809e-05 -5.014511e-04 2.532255e-01 -9.647832e-02 2.532255e-01 -9.647832e-02 2.846809e-05 -5.014511e-04
3.200360e+10 4.141645e-05 -5.278999e-04 1.947139e-01 -1.879062e-01 1.947139e-01 -1.879062e-01 4.141645e-05 -5.278999e-04
3.205359e+10 3.045561e-05 -5.550376e-04 1.051255e-01 -2.489230e-01 1.051255e-01 -2.489230e-01 3.045561e-05 -5.550376e-04
3.210358e+10 2.551774e-06 -5.654674e-04 -1.076512e-03 -2.698245e-01 -1.076512e-03 -2.698245e-01 2.551774e-06 -5.654674e-04
3.215357e+10 -2.499988e-05 -5.522265e-04 -1.068038e-01 -2.473710e-01 -1.068038e-01 -2.473710e-01 -2.499988e-05 -5.522265e-04
3.220356e+10 -3.529595e-05 -5.229535e-04 -1.950931e-01 -1.852886e-01 -1.950931e-01 -1.852886e-01 -3.529595e-05 -5.229535e-04
3.225355e+10 -2.219621e-05 -4.950520e-04 -2.518272e-01 -9.365143e-02 -2.518272e-01 -9.365143e-02 -2.219621e-05 -4.950520e-04
3.230354e+10 6.016754e-06 -4.849086e-04 -2.679924e-01 1.275263e-02 -2.679924e-01 1.275263e-02 6.016754e-06 -4.849086e-04
3.235353e+10 3.186779e-05 -4.978454e-04 -2.411101e-01 1.168083e-01 -2.411101e-01 1.168083e-01 3.186779e-05 -4.978454e-04
3.240352e+10 3.950880e-05 -5.249653e-04 -1.756158e-01 2.018258e-01 -1.756158e-01 2.018258e-01 3.950880e-05 -5.249653e-04
3.245351e+10 2.442996e-05 -5.487573e-04 -8.212824e-02 2.542174e-01 -8.212824e-02 2.542174e-01 2.442996e-05 -5.487573e-04
3.250350e+10 -3.887179e-06 -5.539326e-04 2.427236e-02 2.656690e-01 2.427236e-02 2.656690e-01 -3.887179e-06 -5.539326e-04
3.255349e+10 -2.793133e-05 -5.367858e-04 1.264766e-01 2.344591e-01 1.264766e-01 2.344591e-01 -2.793133e-05 -5.367858e-04
3.260348e+10 -3.299153e-05 -5.073527e-04 2.080968e-01 1.657167e-01 2.080968e-01 1.657167e-01 -3.299153e-05 -5.073527e-04
3.265347e+10 -1.615844e-05 -4.831102e-04 2.560948e-01 7.057826e-02 2.560948e-01 7.057826e-02 -1.615844e-05 -4.831102e-04
3.270346e+10 1.200942e-05 -4.781738e-04 2.628640e-01 -3.561560e-02 2.628640e-01 -3.561560e-02 1.200942e-05 -4.781738e-04
3.275345e+10 3.410306e-05 -4.946674e-04 2.274352e-01 -1.357939e-01 2.274352e-01 -1.357939e-01 3.410306e-05 -4.946674e-04
3.280344e+10 3.661828e-05 -5.215409e-04 1.556126e-01 -2.138993e-01 1.556126e-01 -2.138993e-01 3.661828e-05 -5.215409e-04
3.285343e+10 1.820514e-05 -5.414863e-04 5.902371e-02 -2.574615e-01 5.902371e-02 -2.574615e-01 1.820514e-05 -5.414863e-04
3.290342e+10 -9.626452e-06 -5.416252e-04 -4.676287e-02 -2.595884e-01 -4.676287e-02 -2.595884e-01 -9.626452e-06 -5.416252e-04
3.295341e+10 -2.970189e-05 -5.213685e-04 -1.447468e-01 -2.200559e-01 -1.447468e-01 -2.200559e-01 -2.970189e-05 -5.213685e-04
3.300340e+10 -2.978122e-05 -4.926541e-04 -2.192276e-01 -1.453250e-01 -2.192276e-01 -1.453250e-01 -2.978122e-05 -4.926541e-04
3.305339e+10 -1.002228e-05 -4.724918e-04 -2.583209e-01 -4.748653e-02 -2.583209e-01 -4.748653e-02 -1.002228e-05 -4.724918e-04
3.310338e+10 1.724163e-05 -4.724719e-04 -2.558536e-01 5.769521e-02 -2.558536e-01 5.769521e-02 1.724163e-05 -4.724719e-04
3.315337e+10 3.519525e-05 -4.917050e-04 -2.123391e-01 1.533221e-01 -2.123391e-01 1.533221e-01 3.519525e-05 -4.917050e-04
3.320336e+10 3.290824e-05 -5.174945e-04 -1.348755e-01 2.240771e-01 -1.348755e-01 2.240771e-01 3.290824e-05 -5.174945e-04
3.325335e+10 1.198485e-05 -5.332493e-04 -3.598843e-02 2.586769e-01 -3.598843e-02 2.586769e-01 1.198485e-05 -5.332493e-04
3.330334e+10 -1.454745e-05 -5.287071e-04 6.839433e-02 2.516718e-01 6.839433e-02 2.516718e-01 -1.454745e-05 -5.287071e-04
3.335333e+10 -3.035000e-05 -5.061696e-04 1.615081e-01 2.043032e-01 1.615081e-01 2.043032e-01 -3.035000e-05 -5.061696e-04
3.340332e+10 -2.583539e-05 -4.789626e-04 2.284438e-01 1.242857e-01 2.284438e-01 1.242857e-01 -2.583539e-05 -4.789626e-04
3.345331e+10 -3.984158e-06 -4.631452e-04 2.585346e-01 2.455076e-02 2.585346e-01 2.455076e-02 -3.984158e-06 -4.631452e-04
3.350330e+10 2.161164e-05 -4.676246e-04 2.470561e-01 -7.884254e-02 2.470561e-01 -7.884254e-02 2.161164e-05 -4.676246e-04
3.355329e+10 3.519876e-05 -4.887608e-04 1.959672e-01 -1.692935e-01 1.959672e-01 -1.692935e-01 3.519876e-05 -4.887608e-04
3.360328e+10 2.855424e-05 -5.127279e-04 1.135773e-01 -2.323249e-01 1.135773e-01 -2.323249e-01 2.855424e-05 -5.127279e-04
3.365327e+10 5.956833e-06 -5.241034e-04 1.319455e-02 -2.578998e-01 1.319455e-02 -2.578998e-01 5.956833e-06 -5.241034e-04
3.370326e+10 -1.856560e-05 -5.153510e-04 -8.902287e-02 -2.420200e-01 -8.902287e-02 -2.420200e-01 -1.856560e-05 -5.153510e-04
3.375325e+10 -2.994515e-05 -4.913670e-04 -1.766681e-01 -1.873502e-01 -1.766681e-01 -1.873502e-01 -2.994515e-05 -4.913670e-04
3.380324e+10 -2.133340e-05 -4.663495e-04 -2.357185e-01 -1.027718e-01 -2.357185e-01 -1.027718e-01 -2.133340e-05 -4.663495e-04
3.385323e+10 1.777803e-06 -4.549890e-04 -2.567793e-01 -1.940408e-03 -2.567793e-01 -1.940408e-03 1.777803e-06 -4.549890e-04
3.390322e+10 2.505186e-05 -4.634464e-04 -2.365779e-01 9.891899e-02 -2.365779e-01 9.891899e-02 2.505186e-05 -4.634464e-04
3.395321e+10 3.419683e-05 -4.856572e-04 -1.784717e-01 1.836224e-01 -1.784717e-01 1.836224e-01 3.419683e-05 -4.856572e-04
3.400320e+10 2.373775e-05 -5.071773e-04 -9.189105e-02 2.386236e-01 -9.189105e-02 2.386236e-01 2.373775e-05 -5.071773e-04
3.405319e+10 2.884021e-07 -5.141336e-04 9.191449e-03 2.551806e-01 9.191449e-03 2.551806e-01 2.884021e-07 -5.141336e-04
3.410318e+10 -2.163030e-05 -5.017342e-04 1.085153e-01 2.307445e-01 1.085153e-01 2.307445e-01 -2.163030e-05 -5.017342e-04
3.415317e+10 -2.858336e-05 -4.771179e-04 1.901480e-01 1.693515e-01 1.901480e-01 1.693515e-01 -2.858336e-05 -4.771179e-04
3.420316e+10 -1.645754e-05 -4.548523e-04 2.410402e-01 8.095633e-02 2.410402e-01 8.095633e-02 -1.645754e-05 -4.548523e-04
3.425315e+10 7.107756e-06 -4.479166e-04 2.531121e-01 -2.018127e-02 2.531121e-01 -2.018127e-02 7.107756e-06 -4.479166e-04
3.430314e+10 2.752821e-05 -4.597507e-04 2.245354e-01 -1.177970e-01 2.245354e-01 -1.177970e-01 2.752821e-05 -4.597507e-04
3.435313e+10 3.229684e-05 -4.822399e-04 1.600095e-01 -1.962373e-01 1.600095e-01 -1.962373e-01 3.229684e-05 -4.822399e-04
3.440312e+10 1.864026e-05 -5.008121e-04 6.998907e-02 -2.429692e-01 6.998907e-02 -2.429692e-01 1.864026e-05 -5.008121e-04
3.445311e+10 -4.876995e-06 -5.034480e-04 -3.100981e-02 -2.505830e-01 -3.100981e-02 -2.505830e-01 -4.876995e-06 -5.034480e-04
3.450310e+10 -2.372380e-05 -4.880327e-04 -1.267500e-01 -2.179665e-01 -1.267500e-01 -2.179665e-01 -2.372380e-05 -4.880327e-04
3.455309e+10 -2.638223e-05 -4.635548e-04 -2.018836e-01 -1.504660e-01 -2.018836e-01 -1.504660e-01 -2.638223e-05 -4.635548e-04
3.460308e+10 -1.138726e-05 -4.444764e-04 -2.444124e-01 -5.901040e-02 -2.444124e-01 -5.901040e-02 -1.138726e-05 -4.444764e-04
3.465307e+10 1.187512e-05 -4.418014e-04 -2.476033e-01 4.165830e-02 -2.476033e-01 4.165830e-02 1.187512e-05 -4.418014e-04
3.470306e+10 2.903859e-05 -4.563550e-04 -2.110544e-01 1.353609e-01 -2.110544e-01 1.353609e-01 2.903859e-05 -4.563550e-04
3.475305e+10 2.962514e-05 -4.783804e-04 -1.407414e-01 2.070812e-01 -1.407414e-01 2.070812e-01 2.962514e-05 -4.783804e-04
3.480304e+10 1.343771e-05 -4.936335e-04 -4.804131e-02 2.453724e-01 -4.804131e-02 2.453724e-01 1.343771e-05 -4.936335e-04
3.485303e+10 -9.422300e-06 -4.921724e-04 5.210857e-02 2.441836e-01 5.210857e-02 2.441836e-01 -9.422300e-06 -4.921724e-04
3.490302e+10 -2.485922e-05 -4.744160e-04 1.436172e-01 2.038158e-01 1.436172e-01 2.038158e-01 -2.485922e-05 -4.744160e-04
3.495301e+10 -2.347573e-05 -4.507834e-04 2.118252e-01 1.308561e-01 2.118252e-01 1.308561e-01 -2.347573e-05 -4.507834e-04
3.500300e+10 -6.293988e-06 -4.351970e-04 2.458528e-01 3.710249e-02 2.458528e-01 3.710249e-02 -6.293988e-06 -4.351970e-04
3.505299e+10 1.597656e-05 -4.365018e-04 2.403353e-01 -6.234298e-02 2.403353e-01 -6.234298e-02 1.597656e-05 -4.365018e-04
3.510298e+10 2.961047e-05 -4.530865e-04 1.962683e-01 -1.515073e-01 1.962683e-01 -1.515073e-01 2.961047e-05 -4.530865e-04
3.515297e+10 2.632182e-05 -4.739782e-04 1.208306e-01 -2.161117e-01 1.208306e-01 -2.161117e-01 2.632182e-05 -4.739782e-04
3.520296e+10 8.295679e-06 -4.856718e-04 2.621438e-02 -2.458580e-01 2.621438e-02 -2.458580e-01 8.295679e-06 -4.856718e-04
3.525295e+10 -1.325835e-05 -4.804454e-04 -7.234452e-02 -2.360705e-01 -7.234452e-02 -2.360705e-01 -1.325835e-05 -4.804454e-04
3.530294e+10 -2.507778e-05 -4.610423e-04 -1.590202e-01 -1.884296e-01 -1.590202e-01 -1.884296e-01 -2.507778e-05 -4.610423e-04
3.535293e+10 -2.000888e-05 -4.388817e-04 -2.199375e-01 -1.106855e-01 -2.199375e-01 -1.106855e-01 -2.000888e-05 -4.388817e-04
3.540292e+10 -1.336530e-06 -4.269623e-04 -2.453934e-01 -1.539705e-02 -2.453934e-01 -1.539705e-02 -1.336530e-06 -4.269623e-04
3.545291e+10 1.933706e-05 -4.318667e-04 -2.314018e-01 8.209679e-02 -2.314018e-01 8.209679e-02 1.933706e-05 -4.318667e-04
3.550290e+10 2.929782e-05 -4.497859e-04 -1.803178e-01 1.661458e-01 -1.803178e-01 1.661458e-01 2.929782e-05 -4.497859e-04
3.555289e+10 2.253537e-05 -4.689613e-04 -1.004415e-01 2.233006e-01 -1.004415e-01 2.233006e-01 2.253537e-05 -4.689613e-04
3.560288e+10 3.365112e-06 -4.769827e-04 -4.670267e-03 2.444649e-01 -4.670267e-03 2.444649e-01 3.365112e-06 -4.769827e-04
3.565287e+10 -1.632443e-05 -4.684126e-04 9.158406e-02 2.263428e-01 9.158406e-02 2.263428e-01 -1.632443e-05 -4.684126e-04
3.570286e+10 -2.444539e-05 -4.480541e-04 1.728749e-01 1.719513e-01 1.728749e-01 1.719513e-01 -2.444539e-05 -4.480541e-04
3.575285e+10 -1.613253e-05 -4.278994e-04 2.261997e-01 9.011905e-02 2.261997e-01 9.011905e-02 -1.613253e-05 -4.278994e-04
3.580284e+10 3.342744e-06 -4.196967e-04 2.430796e-01 -5.946623e-03 2.430796e-01 -5.946623e-03 3.342744e-06 -4.196967e-04
3.585283e+10 2.191000e-05 -4.277408e-04 2.209072e-01 -1.007912e-01 2.209072e-01 -1.007912e-01 2.191000e-05 -4.277408e-04
3.590282e+10 2.817736e-05 -4.463117e-04 1.633488e-01 -1.791992e-01 1.633488e-01 -1.791992e-01 2.817736e-05 -4.463117e-04
3.595281e+10 1.841755e-05 -4.632863e-04 7.973861e-02 -2.286345e-01 7.973861e-02 -2.286345e-01 1.841755e-05 -4.632863e-04
3.600280e+10 -1.221120e-06 -4.676444e-04 -1.643468e-02 -2.412451e-01 -1.643468e-02 -2.412451e-01 -1.221120e-06 -4.676444e-04
3.605279e+10 -1.858796e-05 -4.562221e-04 -1.097040e-01 -2.151096e-01 -1.097040e-01 -2.151096e-01 -1.858796e-05 -4.562221e-04
3.610278e+10 -2.304875e-05 -4.355755e-04 -1.851111e-01 -1.545293e-01 -1.851111e-01 -1.545293e-01 -2.304875e-05 -4.355755e-04
3.615277e+10 -1.199829e-05 -4.178583e-04 -2.306054e-01 -6.932054e-02 -2.306054e-01 -6.932054e-02 -1.199829e-05 -4.178583e-04
3.620276e+10 7.620972e-06 -4.133053e-04 -2.389698e-01 2.677543e-02 -2.389698e-01 2.677543e-02 7.620972e-06 -4.133053e-04
3.625275e+10 2.367636e-05 -4.239692e-04 -2.089650e-01 1.183086e-01 -2.089650e-01 1.183086e-01 2.367636e-05 -4.239692e-04
3.630274e+10 2.634458e-05 -4.425425e-04 -1.455118e-01 1.906039e-01 -1.455118e-01 1.906039e-01 2.634458e-05 -4.425425e-04
3.635273e+10 1.411856e-05 -4.569370e-04 -5.888503e-02 2.321139e-01 -5.888503e-02 2.321139e-01 1.411856e-05 -4.569370e-04
3.640272e+10 -5.350867e-06 -4.577524e-04 3.695087e-02 2.362630e-01 3.695087e-02 2.362630e-01 -5.350867e-06 -4.577524e-04
3.645271e+10 -2.004327e-05 -4.440192e-04 1.265922e-01 2.024888e-01 1.265922e-01 2.024888e-01 -2.004327e-05 -4.440192e-04
3.650270e+10 -2.099115e-05 -4.237096e-04 1.956719e-01 1.363158e-01 1.956719e-01 1.363158e-01 -2.099115e-05 -4.237096e-04
3.655269e+10 -7.753933e-06 -4.087539e-04 2.331622e-01 4.845209e-02 2.331622e-01 4.845209e-02 -7.753933e-06 -4.087539e-04
3.660268e+10 1.139703e-05 -4.076776e-04 2.331345e-01 -4.694350e-02 2.331345e-01 -4.694350e-02 1.139703e-05 -4.076776e-04
3.665267e+10 2.464323e-05 -4.204020e-04 1.956971e-01 -1.345426e-01 1.956971e-01 -1.345426e-01 2.464323e-05 -4.204020e-04
3.670266e+10 2.390931e-05 -4.383791e-04 1.269607e-01 -2.003102e-01 1.269607e-01 -2.003102e-01 2.390931e-05 -4.383791e-04
3.675265e+10 9.782531e-06 -4.499232e-04 3.804149e-02 -2.337534e-01 3.804149e-02 -2.337534e-01 9.782531e-06 -4.499232e-04
3.680264e+10 -8.934520e-06 -4.474160e-04 -5.673638e-02 -2.295950e-01 -5.673638e-02 -2.295950e-01 -8.934520e-06 -4.474160e-04
3.685263e+10 -2.070979e-05 -4.319423e-04 -1.421483e-01 -1.886062e-01 -1.421483e-01 -1.886062e-01 -2.070979e-05 -4.319423e-04
3.690262e+10 -1.838802e-05 -4.125364e-04 -2.045146e-01 -1.174659e-01 -2.045146e-01 -1.174659e-01 -1.838802e-05 -4.125364e-04
3.695261e+10 -3.539139e-06 -4.005573e-04 -2.338913e-01 -2.767274e-02 -2.338913e-01 -2.767274e-02 -3.539139e-06 -4.005573e-04
3.700260e+10 1.459294e-05 -4.026922e-04 -2.256556e-01 6.631310e-02 -2.256556e-01 6.631310e-02 1.459294e-05 -4.026922e-04
3.705259e+10 2.484159e-05 -4.168987e-04 -1.812328e-01 1.493987e-01 -1.812328e-01 1.493987e-01 2.484159e-05 -4.168987e-04
3.710258e+10 2.099135e-05 -4.337460e-04 -1.078510e-01 2.082820e-01 -1.078510e-01 2.082820e-01 2.099135e-05 -4.337460e-04
3.715257e+10 5.543661e-06 -4.422777e-04 -1.736509e-02 2.335808e-01 -1.736509e-02 2.335808e-01 5.543661e-06 -4.422777e-04
3.720256e+10 -1.190601e-05 -4.367533e-04 7.565787e-02 2.213284e-01 7.565787e-02 2.213284e-01 -1.190601e-05 -4.367533e-04
3.725255e+10 -2.062945e-05 -4.201191e-04 1.562840e-01 1.735941e-01 1.562840e-01 1.735941e-01 -2.062945e-05 -4.201191e-04
3.730254e+10 -1.536255e-05 -4.021128e-04 2.116099e-01 9.813556e-02 2.116099e-01 9.813556e-02 -1.536255e-05 -4.021128e-04
3.735253e+10 5.180919e-07 -3.932181e-04 2.328274e-01 7.137425e-03 2.328274e-01 7.137425e-03 5.180919e-07 -3.932181e-04
3.740252e+10 1.715448e-05 -3.982214e-04 2.166256e-01 -8.475548e-02 2.166256e-01 -8.475548e-02 1.715448e-05 -3.982214e-04
3.745251e+10 2.432350e-05 -4.133314e-04 1.657076e-01 -1.627951e-01 1.657076e-01 -1.627951e-01 2.432350e-05 -4.133314e-04
3.750250e+10 1.771604e-05 -4.285915e-04 8.833921e-02 -2.144970e-01 8.833921e-02 -2.144970e-01 1.771604e-05 -4.285915e-04
3.755249e+10 1.522872e-06 -4.340543e-04 -2.991711e-03 -2.316373e-01 -2.991711e-03 -2.316373e-01 1.522872e-06 -4.340543e-04
3.760248e+10 -1.422303e-05 -4.258870e-04 -9.359139e-02 -2.115605e-01 -9.359139e-02 -2.115605e-01 -1.422303e-05 -4.258870e-04
3.765247e+10 -1.986378e-05 -4.086634e-04 -1.689238e-01 -1.575908e-01 -1.689238e-01 -1.575908e-01 -1.986378e-05 -4.086634e-04
3.770246e+10 -1.204129e-05 -3.924718e-04 -2.169426e-01 -7.848139e-02 -2.169426e-01 -7.848139e-02 -1.204129e-05 -3.924718e-04
3.775245e+10 4.304458e-06 -3.866669e-04 -2.300175e-01 1.300417e-02 -2.300175e-01 1.300417e-02 4.304458e-06 -3.866669e-04
3.780244e+10 1.905098e-05 -3.941352e-04 -2.061466e-01 1.021517e-01 -2.061466e-01 1.021517e-01 1.905098e-05 -3.941352e-04
3.785243e+10 2.315893e-05 -4.095874e-04 -1.492617e-01 1.746625e-01 -1.492617e-01 1.746625e-01 2.315893e-05 -4.095874e-04
3.790242e+10 1.421001e-05 -4.228876e-04 -6.858152e-02 2.189468e-01 -6.858152e-02 2.189468e-01 1.421001e-05 -4.228876e-04
3.795241e+10 -2.174858e-06 -4.253234e-04 2.288220e-02 2.279760e-01 2.288220e-02 2.279760e-01 -2.174858e-06 -4.253234e-04
3.800240e+10 -1.586649e-05 -4.149402e-04 1.104231e-01 2.003979e-01 1.104231e-01 2.003979e-01 -1.586649e-05 -4.149402e-04
3.805239e+10 -1.849045e-05 -3.976727e-04 1.800047e-01 1.407385e-01 1.800047e-01 1.407385e-01 -1.849045e-05 -3.976727e-04
3.810238e+10 -8.550065e-06 -3.836236e-04 2.205107e-01 5.865882e-02 2.205107e-01 5.865882e-02 -8.550065e-06 -3.836236e-04
3.815237e+10 7.723682e-06 -3.808196e-04 2.255211e-01 -3.260853e-02 2.255211e-01 -3.260853e-02 7.723682e-06 -3.808196e-04
3.820236e+10 2.027452e-05 -3.903053e-04 1.943292e-01 -1.183931e-01 1.943292e-01 -1.183931e-01 2.027452e-05 -3.903053e-04
3.825235e+10 2.143226e-05 -4.055720e-04 1.320394e-01 -1.849445e-01 1.320394e-01 -1.849445e-01 2.143226e-05 -4.055720e-04
3.830234e+10 1.059722e-05 -4.166286e-04 4.873242e-02 -2.216361e-01 4.873242e-02 -2.216361e-01 1.059722e-05 -4.166286e-04
3.835233e+10 -5.462478e-06 -4.161695e-04 -4.216634e-02 -2.226621e-01 -4.216634e-02 -2.226621e-01 -5.462478e-06 -4.161695e-04
3.840232e+10 -1.683935e-05 -4.040325e-04 -1.260499e-01 -1.879553e-01 -1.260499e-01 -1.879553e-01 -1.683935e-05 -4.040325e-04
3.845231e+10 -1.659973e-05 -3.872263e-04 -1.894770e-01 -1.231830e-01 -1.894770e-01 -1.231830e-01 -1.659973e-05 -3.872263e-04
3.850230e+10 -5.010206e-06 -3.755570e-04 -2.223258e-01 -3.882120e-02 -2.223258e-01 -3.882120e-02 -5.010206e-06 -3.755570e-04
3.855229e+10 1.069815e-05 -3.755801e-04 -2.194087e-01 5.153932e-02 -2.194087e-01 5.153932e-02 1.069815e-05 -3.755801e-04
3.860228e+10 2.083838e-05 -3.866090e-04 -1.812918e-01 1.333823e-01 -1.812918e-01 1.333823e-01 2.083838e-05 -3.866090e-04
3.865227e+10 1.923861e-05 -4.012093e-04 -1.141878e-01 1.935980e-01 -1.141878e-01 1.935980e-01 1.923861e-05 -4.012093e-04
3.870226e+10 6.995404e-06 -4.098298e-04 -2.894382e-02 2.225830e-01 -2.894382e-02 2.225830e-01 6.995404e-06 -4.098298e-04
3.875225e+10 -8.272153e-06 -4.066867e-04 6.071168e-02 2.157716e-01 6.071168e-02 2.157716e-01 -8.272153e-06 -4.066867e-04
3.880224e+10 -1.716482e-05 -3.932765e-04 1.403800e-01 1.743544e-01 1.403800e-01 1.743544e-01 -1.716482e-05 -3.932765e-04
3.885223e+10 -1.429075e-05 -3.773841e-04 1.973042e-01 1.050723e-01 1.973042e-01 1.050723e-01 -1.429075e-05 -3.773841e-04
3.890222e+10 -1.535168e-06 -3.682412e-04 2.224122e-01 1.911867e-02 2.224122e-01 1.911867e-02 -1.535168e-06 -3.682412e-04
3.895221e+10 1.316985e-05 -3.708448e-04 2.117617e-01 -6.966818e-02 2.117617e-01 -6.966818e-02 1.316985e-05 -3.708448e-04
3.900220e+10 2.077504e-05 -3.829324e-04 1.671594e-01 -1.470332e-01 1.671594e-01 -1.470332e-01 2.077504e-05 -3.829324e-04
3.905219e+10 1.668009e-05 -3.964433e-04 9.585518e-02 -2.005931e-01 9.585518e-02 -2.005931e-01 1.668009e-05 -3.964433e-04
3.910218e+10 3.512925e-06 -4.025252e-04 9.363851e-03 -2.218182e-01 9.363851e-03 -2.218182e-01 3.512925e-06 -4.025252e-04
3.915217e+10 -1.055587e-05 -3.969755e-04 -7.839417e-02 -2.073907e-01 -7.839417e-02 -2.073907e-01 -1.055587e-05 -3.969755e-04
3.920216e+10 -1.688413e-05 -3.827752e-04 -1.533332e-01 -1.597231e-01 -1.533332e-01 -1.597231e-01 -1.688413e-05 -3.827752e-04
3.925215e+10 -1.166782e-05 -3.681863e-04 -2.034629e-01 -8.655507e-02 -2.034629e-01 -8.655507e-02 -1.166782e-05 -3.681863e-04
3.930214e+10 1.772322e-06 -3.616278e-04 -2.208067e-01 3.028791e-04 -2.208067e-01 3.028791e-04 1.772322e-06 -3.616278e-04
3.935213e+10 1.510065e-05 -3.665058e-04 -2.026709e-01 8.687557e-02 -2.026709e-01 8.687557e-02 1.510065e-05 -3.665058e-04
3.940212e+10 2.013372e-05 -3.791730e-04 -1.520624e-01 1.592717e-01 -1.520624e-01 1.592717e-01 2.013372e-05 -3.791730e-04
3.945211e+10 1.386218e-05 -3.912382e-04 -7.719053e-02 2.059127e-01 -7.719053e-02 2.059127e-01 1.386218e-05 -3.912382e-04
3.950210e+10 2.461875e-07 -3.947650e-04 9.864111e-03 2.193843e-01 9.864111e-03 2.193843e-01 2.461875e-07 -3.947650e-04
3.955209e+10 -1.228540e-05 -3.871388e-04 9.509894e-02 1.976151e-01 9.509894e-02 1.976151e-01 -1.228540e-05 -3.871388e-04
3.960208e+10 -1.605389e-05 -3.726186e-04 1.648415e-01 1.441942e-01 1.648415e-01 1.441942e-01 -1.605389e-05 -3.726186e-04
3.965207e+10 -8.836798e-06 -3.596534e-04 2.079425e-01 6.778005e-02 2.079425e-01 6.778005e-02 -8.836798e-06 -3.596534e-04
3.970206e+10 4.822593e-06 -3.556541e-04 2.175581e-01 -1.930283e-02 2.175581e-01 -1.930283e-02 4.822593e-06 -3.556541e-04
3.975205e+10 1.647196e-05 -3.624547e-04 1.922365e-01 -1.030514e-01 1.922365e-01 -1.030514e-01 1.647196e-05 -3.624547e-04
3.980204e+10 1.897759e-05 -3.752419e-04 1.361357e-01 -1.700359e-01 1.361357e-01 -1.700359e-01 1.897759e-05 -3.752419e-04
3.985203e+10 1.089021e-05 -3.855773e-04 5.834201e-02 -2.095529e-01 5.834201e-02 -2.095529e-01 1.089021e-05 -3.855773e-04
3.990202e+10 -2.722405e-06 -3.866127e-04 -2.860242e-02 -2.153360e-01 -2.860242e-02 -2.153360e-01 -2.722405e-06 -3.866127e-04
3.995201e+10 -1.345165e-05 -3.772787e-04 -1.107209e-01 -1.865487e-01 -1.107209e-01 -1.865487e-01 -1.345165e-05 -3.772787e-04
4.000200e+10 -1.474320e-05 -3.628828e-04 -1.748492e-01 -1.279044e-01 -1.748492e-01 -1.279044e-01 -1.474320e-05 -3.628828e-04
4.005199e+10 -5.901789e-06 -3.517873e-04 -2.107455e-01 -4.889462e-02 -2.107455e-01 -4.889462e-02 -5.901789e-06 -3.517873e-04
4.010198e+10 7.540775e-06 -3.502459e-04 -2.127264e-01 3.774673e-02 -2.127264e-01 3.774673e-02 7.540775e-06 -3.502459e-04
4.015197e+10 1.728379e-05 -3.585856e-04 -1.805660e-01 1.180958e-01 -1.805660e-01 1.180958e-01 1.728379e-05 -3.585856e-04
4.020196e+10 1.738079e-05 -3.710656e-04 -1.195176e-01 1.792763e-01 -1.195176e-01 1.792763e-01 1.738079e-05 -3.710656e-04
4.025195e+10 7.866181e-06 -3.794624e-04 -3.945596e-02 2.115225e-01 -3.945596e-02 2.115225e-01 7.866181e-06 -3.794624e-04
4.030194e+10 -5.325904e-06 -3.781421e-04 4.672008e-02 2.097386e-01 4.672008e-02 2.097386e-01 -5.325904e-06 -3.781421e-04
4.035193e+10 -1.406348e-05 -3.674934e-04 1.251654e-01 1.743029e-01 1.251654e-01 1.743029e-01 -1.406348e-05 -3.674934e-04
4.040192e+10 -1.303054e-05 -3.536281e-04 1.833130e-01 1.109931e-01 1.833130e-01 1.109931e-01 -1.303054e-05 -3.536281e-04
4.045191e+10 -2.962054e-06 -3.445723e-04 2.118869e-01 3.004385e-02 2.118869e-01 3.004385e-02 -2.962054e-06 -3.445723e-04
4.050190e+10 9.867968e-06 -3.453200e-04 2.063822e-01 -5.550724e-02 2.063822e-01 -5.550724e-02 9.867968e-06 -3.453200e-04
4.055189e+10 1.755334e-05 -3.547983e-04 1.677744e-01 -1.319195e-01 1.677744e-01 -1.319195e-01 1.755334e-05 -3.547983e-04
4.060188e+10 1.542529e-05 -3.665868e-04 1.023485e-01 -1.869558e-01 1.023485e-01 -1.869558e-01 1.542529e-05 -3.665868e-04
4.065187e+10 4.885859e-06 -3.729123e-04 2.067590e-02 -2.118425e-01 2.067590e-02 -2.118425e-01 4.885859e-06 -3.729123e-04
4.070186e+10 -7.513694e-06 -3.694341e-04 -6.409354e-02 -2.026677e-01 -6.409354e-02 -2.026677e-01 -7.513694e-06 -3.694341e-04
4.075185e+10 -1.414606e-05 -3.578740e-04 -1.383486e-01 -1.609957e-01 -1.383486e-01 -1.609957e-01 -1.414606e-05 -3.578740e-04
4.080184e+10 -1.100070e-05 -3.448985e-04 -1.902021e-01 -9.360152e-02 -1.902021e-01 -9.360152e-02 -1.100070e-05 -3.448985e-04
4.085183e+10 -1.093480e-07 -3.379769e-04 -2.113938e-01 -1.136942e-02 -2.113938e-01 -1.136942e-02 -1.093480e-07 -3.379769e-04
4.090182e+10 1.176183e-05 -3.407882e-04 -1.986059e-01 7.246483e-02 -1.986059e-01 7.246483e-02 1.176183e-05 -3.407882e-04
4.095181e+10 1.731319e-05 -3.510010e-04 -1.539824e-01 1.444441e-01 -1.539824e-01 1.444441e-01 1.731319e-05 -3.510010e-04
4.100180e+10 1.319783e-05 -3.617647e-04 -8.476992e-02 1.930500e-01 -8.476992e-02 1.930500e-01 1.319783e-05 -3.617647e-04
4.105179e+10 2.036338e-06 -3.659605e-04 -2.141438e-03 2.105459e-01 -2.141438e-03 2.105459e-01 2.036338e-06 -3.659605e-04
4.110178e+10 -9.251799e-06 -3.605737e-04 8.060753e-02 1.942084e-01 8.060753e-02 1.942084e-01 -9.251799e-06 -3.605737e-04
4.115177e+10 -1.373889e-05 -3.485028e-04 1.501980e-01 1.467503e-01 1.501980e-01 1.467503e-01 -1.373889e-05 -3.485028e-04
4.120176e+10 -8.741664e-06 -3.367214e-04 1.954984e-01 7.587137e-02 1.954984e-01 7.587137e-02 -8.741664e-06 -3.367214e-04
4.125175e+10 2.574322e-06 -3.319561e-04 2.093049e-01 -6.991353e-03 2.093049e-01 -6.991353e-03 2.574322e-06 -3.319561e-04
4.130174e+10 1.319661e-05 -3.365598e-04 1.894870e-01 -8.850861e-02 1.894870e-01 -8.850861e-02 1.319661e-05 -3.365598e-04
4.135173e+10 1.660907e-05 -3.471119e-04 1.393156e-01 -1.556030e-01 1.393156e-01 -1.556030e-01 1.660907e-05 -3.471119e-04
4.140172e+10 1.078683e-05 -3.565754e-04 6.692352e-02 -1.975469e-01 6.692352e-02 -1.975469e-01 1.078683e-05 -3.565754e-04
4.145171e+10 -6.059909e-07 -3.586535e-04 -1.601262e-02 -2.076773e-01 -1.601262e-02 -2.076773e-01 -6.059909e-07 -3.586535e-04
4.150170e+10 -1.052266e-05 -3.516469e-04 -9.615567e-02 -1.844543e-01 -9.615567e-02 -1.844543e-01 -1.052266e-05 -3.516469e-04
4.155169e+10 -1.289346e-05 -3.394510e-04 -1.606526e-01 -1.316946e-01 -1.606526e-01 -1.316946e-01 -1.289346e-05 -3.394510e-04
4.160168e+10 -6.341683e-06 -3.291081e-04 -1.991959e-01 -5.794389e-02 -1.991959e-01 -5.794389e-02 -6.341683e-06 -3.291081e-04
4.165167e+10 5.018477e-06 -3.264533e-04 -2.056703e-01 2.490643e-02 -2.056703e-01 2.490643e-02 5.018477e-06 -3.264533e-04
4.170166e+10 1.416267e-05 -3.325446e-04 -1.791232e-01 1.035369e-01 -1.791232e-01 1.035369e-01 1.416267e-05 -3.325446e-04
4.175165e+10 1.549751e-05 -3.430613e-04 -1.239037e-01 1.653411e-01 -1.239037e-01 1.653411e-01 1.549751e-05 -3.430613e-04
4.180164e+10 8.279593e-06 -3.510109e-04 -4.894989e-02 2.004465e-01 -4.894989e-02 2.004465e-01 8.279593e-06 -3.510109e-04
4.185163e+10 -2.976964e-06 -3.510477e-04 3.365723e-02 2.032918e-01 3.365723e-02 2.032918e-01 -2.976964e-06 -3.510477e-04
4.190162e+10 -1.132443e-05 -3.427382e-04 1.106411e-01 1.735070e-01 1.106411e-01 1.735070e-01 -1.132443e-05 -3.427382e-04
4.195161e+10 -1.167074e-05 -3.307770e-04 1.696633e-01 1.159596e-01 1.696633e-01 1.159596e-01 -1.167074e-05 -3.307770e-04
4.200160e+10 -3.886531e-06 -3.220543e-04 2.013008e-01 3.995878e-02 2.013008e-01 3.995878e-02 -3.886531e-06 -3.220543e-04
4.205159e+10 7.165454e-06 -3.214035e-04 2.005504e-01 -4.224993e-02 2.005504e-01 -4.224993e-02 7.165454e-06 -3.214035e-04
4.210158e+10 1.466559e-05 -3.286555e-04 1.676195e-01 -1.174578e-01 1.676195e-01 -1.174578e-01 1.466559e-05 -3.286555e-04
4.215157e+10 1.404323e-05 -3.387928e-04 1.078790e-01 -1.736151e-01 1.078790e-01 -1.736151e-01 1.404323e-05 -3.387928e-04
4.220156e+10 5.759678e-06 -3.450780e-04 3.098760e-02 -2.017613e-01 3.098760e-02 -2.017613e-01 5.759678e-06 -3.450780e-04
4.225155e+10 -5.025694e-06 -3.432073e-04 -5.066991e-02 -1.974551e-01 -5.066991e-02 -1.974551e-01 -5.025694e-06 -3.432073e-04
4.230154e+10 -1.166982e-05 -3.339274e-04 -1.239771e-01 -1.614746e-01 -1.239771e-01 -1.614746e-01 -1.166982e-05 -3.339274e-04
4.235153e+10 -1.013864e-05 -3.225263e-04 -1.771928e-01 -9.967877e-02 -1.771928e-01 -9.967877e-02 -1.013864e-05 -3.225263e-04
4.240152e+10 -1.457060e-06 -3.155418e-04 -2.018313e-01 -2.205320e-02 -2.018313e-01 -2.205320e-02 -1.457060e-06 -3.155418e-04
4.245151e+10 8.971200e-06 -3.167352e-04 -1.940156e-01 5.890299e-02 -1.940156e-01 5.890299e-02 8.971200e-06 -3.167352e-04
4.250150e+10 1.472477e-05 -3.248112e-04 -1.550870e-01 1.301898e-01 -1.550870e-01 1.301898e-01 1.472477e-05 -3.248112e-04
4.255149e+10 1.231656e-05 -3.342635e-04 -9.137575e-02 1.803937e-01 -9.137575e-02 1.803937e-01 1.231656e-05 -3.342635e-04
4.260148e+10 3.304623e-06 -3.387974e-04 -1.317217e-02 2.015149e-01 -1.317217e-02 2.015149e-01 3.304623e-06 -3.387974e-04
4.265147e+10 -6.715119e-06 -3.352015e-04 6.693554e-02 1.902422e-01 6.693554e-02 1.902422e-01 -6.715119e-06 -3.352015e-04
4.270146e+10 -1.158461e-05 -3.252883e-04 1.360873e-01 1.484712e-01 1.360873e-01 1.484712e-01 -1.158461e-05 -3.252883e-04
4.275145e+10 -8.369328e-06 -3.147303e-04 1.832157e-01 8.298683e-02 1.832157e-01 8.298683e-02 -8.369328e-06 -3.147303e-04
4.280144e+10 8.729183e-07 -3.095396e-04 2.008169e-01 4.360809e-03 2.008169e-01 4.360809e-03 8.729183e-07 -3.095396e-04
4.285143e+10 1.040560e-05 -3.123735e-04 1.861455e-01 -7.475442e-02 1.861455e-01 -7.475442e-02 1.040560e-05 -3.123735e-04
4.290142e+10 1.437185e-05 -3.209378e-04 1.416424e-01 -1.416618e-01 1.416424e-01 -1.416618e-01 1.437185e-05 -3.209378e-04
4.295141e+10 1.039082e-05 -3.294448e-04 7.452886e-02 -1.856575e-01 7.452886e-02 -1.856575e-01 1.039082e-05 -3.294448e-04
4.300140e+10 9.840058e-07 -3.322012e-04 -4.364867e-03 -1.997425e-01 -4.364867e-03 -1.997425e-01 9.840058e-07 -3.322012e-04
4.305139e+10 -8.022099e-06 -3.271019e-04 -8.234706e-02 -1.817369e-01 -8.234706e-02 -1.817369e-01 -8.022099e-06 -3.271019e-04
4.310138e+10 -1.110585e-05 -3.168861e-04 -1.469063e-01 -1.346158e-01 -1.469063e-01 -1.346158e-01 -1.110585e-05 -3.168861e-04
4.315137e+10 -6.436724e-06 -3.074067e-04 -1.877185e-01 -6.601867e-02 -1.877185e-01 -6.601867e-02 -6.436724e-06 -3.074067e-04
4.320136e+10 3.038371e-06 -3.040061e-04 -1.982980e-01 1.298919e-02 -1.982980e-01 1.298919e-02 3.038371e-06 -3.040061e-04
4.325135e+10 1.145232e-05 -3.082423e-04 -1.770280e-01 8.970143e-02 -1.770280e-01 8.970143e-02 1.145232e-05 -3.082423e-04
4.330134e+10 1.364872e-05 -3.169707e-04 -1.274068e-01 1.518141e-01 -1.274068e-01 1.518141e-01 1.364872e-05 -3.169707e-04
4.335133e+10 8.339843e-06 -3.243217e-04 -5.747298e-02 1.893989e-01 -5.747298e-02 1.893989e-01 8.339843e-06 -3.243217e-04
4.340132e+10 -1.142090e-06 -3.253317e-04 2.149684e-02 1.964900e-01 2.149684e-02 1.964900e-01 -1.142090e-06 -3.253317e-04
4.345131e+10 -8.937059e-06 -3.189801e-04 9.680611e-02 1.720310e-01 9.680611e-02 1.720310e-01 -8.937059e-06 -3.189801e-04
4.350130e+10 -1.027987e-05 -3.087764e-04 1.563796e-01 1.200311e-01 1.563796e-01 1.200311e-01 -1.027987e-05 -3.087764e-04
4.355129e+10 -4.414057e-06 -3.005597e-04 1.906995e-01 4.890844e-02 1.906995e-01 4.890844e-02 -4.414057e-06 -3.005597e-04
4.360128e+10 4.984380e-06 -2.988911e-04 1.943257e-01 -2.987289e-02 1.943257e-01 -2.987289e-02 4.984380e-06 -2.988911e-04
4.365127e+10 1.210829e-05 -3.042671e-04 1.667584e-01 -1.036502e-01 1.667584e-01 -1.036502e-01 1.210829e-05 -3.042671e-04
4.370126e+10 1.260553e-05 -3.128556e-04 1.125046e-01 -1.605977e-01 1.125046e-01 -1.605977e-01 1.260553e-05 -3.128556e-04
4.375125e+10 6.235637e-06 -3.188924e-04 4.034150e-02 -1.916219e-01 4.034150e-02 -1.916219e-01 6.235637e-06 -3.188924e-04
4.380124e+10 -3.024209e-06 -3.182387e-04 -3.810282e-02 -1.918132e-01 -3.810282e-02 -1.918132e-01 -3.024209e-06 -3.182387e-04
4.385123e+10 -9.463258e-06 -3.109053e-04 -1.102236e-01 -1.612233e-01 -1.102236e-01 -1.612233e-01 -9.463258e-06 -3.109053e-04
4.390122e+10 -9.160125e-06 -3.010038e-04 -1.644642e-01 -1.048430e-01 -1.644642e-01 -1.048430e-01 -9.160125e-06 -3.010038e-04
4.395121e+10 -2.371668e-06 -2.941811e-04 -1.921683e-01 -3.178850e-02 -1.921683e-01 -3.178850e-02 -2.371668e-06 -2.941811e-04
4.400120e+10 6.667068e-06 -2.941378e-04 -1.889608e-01 4.617254e-02 -1.889608e-01 4.617254e-02 6.667068e-06 -2.941378e-04
4.405119e+10 1.238277e-05 -3.003766e-04 -1.554389e-01 1.165165e-01 -1.554389e-01 1.165165e-01 1.238277e-05 -3.003766e-04
4.410118e+10 1.129843e-05 -3.085497e-04 -9.706243e-02 1.679754e-01 -9.706243e-02 1.679754e-01 1.129843e-05 -3.085497e-04
4.415117e+10 4.146318e-06 -3.131671e-04 -2.326554e-02 1.923418e-01 -2.326554e-02 1.923418e-01 4.146318e-06 -3.131671e-04
4.420116e+10 -4.624244e-06 -3.109777e-04 5.406840e-02 1.857777e-01 5.406840e-02 1.857777e-01 -4.624244e-06 -3.109777e-04
4.425115e+10 -9.615702e-06 -3.029426e-04 1.225200e-01 1.494188e-01 1.225200e-01 1.494188e-01 -9.615702e-06 -3.029426e-04
4.430114e+10 -7.805002e-06 -2.936017e-04 1.711284e-01 8.917894e-02 1.711284e-01 8.917894e-02 -7.805002e-06 -2.936017e-04
4.435113e+10 -3.750530e-07 -2.882513e-04 1.921459e-01 1.478852e-02 1.921459e-01 1.478852e-02 -3.750530e-07 -2.882513e-04
4.440112e+10 8.054110e-06 -2.896851e-04 1.822734e-01 -6.177723e-02 1.822734e-01 -6.177723e-02 8.054110e-06 -2.896851e-04
4.445111e+10 1.229610e-05 -2.965049e-04 1.431771e-01 -1.282258e-01 1.431771e-01 -1.282258e-01 1.229610e-05 -2.965049e-04
4.450110e+10 9.787429e-06 -3.040217e-04 8.120861e-02 -1.739210e-01 8.120861e-02 -1.739210e-01 9.787429e-06 -3.040217e-04
4.455109e+10 2.134285e-06 -3.071668e-04 6.373046e-03 -1.915850e-01 6.373046e-03 -1.915850e-01 2.134285e-06 -3.071668e-04
4.460108e+10 -5.915744e-06 -3.036076e-04 -6.928637e-02 -1.784579e-01 -6.928637e-02 -1.784579e-01 -5.915744e-06 -3.036076e-04
4.465107e+10 -9.419785e-06 -2.951508e-04 -1.336262e-01 -1.367278e-01 -1.336262e-01 -1.367278e-01 -9.419785e-06 -2.951508e-04
4.470106e+10 -6.275637e-06 -2.865919e-04 -1.763517e-01 -7.316750e-02 -1.763517e-01 -7.316750e-02 -6.275637e-06 -2.865919e-04
4.475105e+10 1.516797e-06 -2.827408e-04 -1.906640e-01 1.965515e-03 -1.906640e-01 1.965515e-03 1.516797e-06 -2.827408e-04
4.480104e+10 9.124850e-06 -2.854695e-04 -1.743418e-01 7.658365e-02 -1.743418e-01 7.658365e-02 9.124850e-06 -2.854695e-04
4.485103e+10 1.187827e-05 -2.925932e-04 -1.300856e-01 1.387141e-01 -1.300856e-01 1.387141e-01 1.187827e-05 -2.925932e-04
4.490102e+10 8.134209e-06 -2.992520e-04 -6.507166e-02 1.784197e-01 -6.507166e-02 1.784197e-01 8.134209e-06 -2.992520e-04
4.495101e+10 2.547293e-07 -3.009221e-04 1.021213e-02 1.893884e-01 1.021213e-02 1.893884e-01 2.547293e-07 -3.009221e-04
4.500100e+10 -6.883848e-06 -2.961883e-04 8.365745e-02 1.699361e-01 8.365745e-02 1.699361e-01 -6.883848e-06 -2.961883e-04
4.505099e+10 -8.909703e-06 -2.875814e-04 1.434832e-01 1.232651e-01 1.434832e-01 1.232651e-01 -8.909703e-06 -2.875814e-04
4.510098e+10 -4.633808e-06 -2.799846e-04 1.801250e-01 5.693705e-02 1.801250e-01 5.693705e-02 -4.633808e-06 -2.799846e-04
4.515097e+10 3.252725e-06 -2.776116e-04 1.877644e-01 -1.835208e-02 1.877644e-01 -1.835208e-02 3.252725e-06 -2.776116e-04
4.520096e+10 9.870053e-06 -2.814279e-04 1.652522e-01 -9.049666e-02 1.652522e-01 -9.049666e-02 9.870053e-06 -2.814279e-04
4.525095e+10 1.116720e-05 -2.885906e-04 1.162811e-01 -1.479277e-01 1.162811e-01 -1.479277e-01 1.116720e-05 -2.885906e-04
4.530094e+10 6.400093e-06 -2.942326e-04 4.877957e-02 -1.814681e-01 4.877957e-02 -1.814681e-01 6.400093e-06 -2.942326e-04
4.535093e+10 -1.445530e-06 -2.944707e-04 -2.637103e-02 -1.857988e-01 -2.637103e-02 -1.857988e-01 -1.445530e-06 -2.944707e-04
4.540092e+10 -7.524851e-06 -2.887790e-04 -9.709077e-02 -1.603021e-01 -9.709077e-02 -1.603021e-01 -7.524851e-06 -2.887790e-04
4.545091e+10 -8.126723e-06 -2.802773e-04 -1.520427e-01 -1.091486e-01 -1.520427e-01 -1.091486e-01 -8.126723e-06 -2.802773e-04
4.550090e+10 -2.939969e-06 -2.737791e-04 -1.824504e-01 -4.061496e-02 -1.824504e-01 -4.061496e-02 -2.939969e-06 -2.737791e-04
4.555089e+10 4.790393e-06 -2.728195e-04 -1.834989e-01 3.425499e-02 -1.834989e-01 3.425499e-02 4.790393e-06 -2.728195e-04
4.560088e+10 1.029131e-05 -2.774986e-04 -1.550979e-01 1.034298e-01 -1.550979e-01 1.034298e-01 1.029131e-05 -2.774986e-04
4.565087e+10 1.020698e-05 -2.844554e-04 -1.018828e-01 1.558239e-01 -1.018828e-01 1.558239e-01 1.020698e-05 -2.844554e-04
4.570086e+10 4.644164e-06 -2.889658e-04 -3.245882e-02 1.830736e-01 -3.245882e-02 1.830736e-01 4.644164e-06 -2.889658e-04
4.575085e+10 -2.928857e-06 -2.878563e-04 4.199041e-02 1.808727e-01 4.199041e-02 1.808727e-01 -2.928857e-06 -2.878563e-04
4.580084e+10 -7.845472e-06 -2.814363e-04 1.095045e-01 1.496522e-01 1.095045e-01 1.496522e-01 -7.845472e-06 -2.814363e-04
4.585083e+10 -7.117357e-06 -2.732721e-04 1.592674e-01 9.449886e-02 1.592674e-01 9.449886e-02 -7.117357e-06 -2.732721e-04
4.590082e+10 -1.251475e-06 -2.679646e-04 1.833405e-01 2.432658e-02 1.833405e-01 2.432658e-02 -1.251475e-06 -2.679646e-04
4.595081e+10 6.096926e-06 -2.683151e-04 1.779286e-01 -4.956413e-02 1.779286e-01 -4.956413e-02 6.096926e-06 -2.683151e-04
4.600080e+10 1.040015e-05 -2.736238e-04 1.439779e-01 -1.153059e-01 1.439779e-01 -1.153059e-01 1.040015e-05 -2.736238e-04
4.605079e+10 9.046027e-06 -2.801557e-04 8.701211e-02 -1.623704e-01 8.701211e-02 -1.623704e-01 9.046027e-06 -2.801557e-04
4.610078e+10 2.921605e-06 -2.834639e-04 1.623344e-02 -1.832544e-01 1.623344e-02 -1.832544e-01 2.921605e-06 -2.834639e-04
4.615077e+10 -4.167262e-06 -2.811266e-04 -5.696347e-02 -1.746755e-01 -5.696347e-02 -1.746755e-01 -4.167262e-06 -2.811266e-04
4.620076e+10 -7.861838e-06 -2.742127e-04 -1.208260e-01 -1.380882e-01 -1.208260e-01 -1.380882e-01 -7.861838e-06 -2.742127e-04
4.625075e+10 -5.931510e-06 -2.665896e-04 -1.651306e-01 -7.943786e-02 -1.651306e-01 -7.943786e-02 -5.931510e-06 -2.665896e-04
4.630074e+10 3.789681e-07 -2.625212e-04 -1.828189e-01 -8.194400e-03 -1.828189e-01 -8.194400e-03 3.789681e-07 -2.625212e-04
4.635073e+10 7.149203e-06 -2.640464e-04 -1.711228e-01 6.417617e-02 -1.711228e-01 6.417617e-02 7.149203e-06 -2.640464e-04
4.640072e+10 1.021693e-05 -2.697504e-04 -1.319966e-01 1.260573e-01 -1.319966e-01 1.260573e-01 1.021693e-05 -2.697504e-04
4.645071e+10 7.735228e-06 -2.756690e-04 -7.179143e-02 1.675462e-01 -7.179143e-02 1.675462e-01 7.735228e-06 -2.756690e-04
4.650070e+10 1.282274e-06 -2.777478e-04 -2.241662e-04 1.820388e-01 -2.241662e-04 1.820388e-01 1.282274e-06 -2.777478e-04
4.655069e+10 -5.142536e-06 -2.743313e-04 7.119049e-02 1.672806e-01 7.119049e-02 1.672806e-01 -5.142536e-06 -2.743313e-04
4.660068e+10 -7.598262e-06 -2.671548e-04 1.309927e-01 1.257168e-01 1.309927e-01 1.257168e-01 -7.598262e-06 -2.671548e-04
4.665067e+10 -4.620669e-06 -2.602442e-04 1.696164e-01 6.408813e-02 1.696164e-01 6.408813e-02 -4.620669e-06 -2.602442e-04
4.670066e+10 1.904583e-06 -2.574213e-04 1.809191e-01 -7.662823e-03 1.809191e-01 -7.662823e-03 1.904583e-06 -2.574213e-04
4.675065e+10 7.933827e-06 -2.599603e-04 1.631590e-01 -7.799518e-02 1.631590e-01 -7.799518e-02 7.933827e-06 -2.599603e-04
4.680064e+10 9.769535e-06 -2.658319e-04 1.192627e-01 -1.356261e-01 1.192627e-01 -1.356261e-01 9.769535e-06 -2.658319e-04
4.685063e+10 6.326183e-06 -2.709830e-04 5.634320e-02 -1.713407e-01 5.634320e-02 -1.713407e-01 6.326183e-06 -2.709830e-04
4.690062e+10 -2.304358e-07 -2.718453e-04 -1.545244e-02 -1.794654e-01 -1.545244e-02 -1.794654e-01 -2.304358e-07 -2.718453e-04
4.695061e+10 -5.846064e-06 -2.675202e-04 -8.457948e-02 -1.587689e-01 -8.457948e-02 -1.587689e-01 -5.846064e-06 -2.675202e-04
4.700060e+10 -7.085856e-06 -2.603028e-04 -1.399518e-01 -1.126484e-01 -1.399518e-01 -1.126484e-01 -7.085856e-06 -2.603028e-04
4.705059e+10 -3.236173e-06 -2.542406e-04 -1.727196e-01 -4.857181e-02 -1.727196e-01 -4.857181e-02 -3.236173e-06 -2.542406e-04
4.710058e+10 3.285525e-06 -2.526307e-04 -1.776841e-01 2.313090e-02 -1.776841e-01 2.313090e-02 3.285525e-06 -2.526307e-04
4.715057e+10 8.446796e-06 -2.560042e-04 -1.541215e-01 9.093319e-02 -1.541215e-01 9.093319e-02 8.446796e-06 -2.560042e-04
4.720056e+10 9.091880e-06 -2.618287e-04 -1.058881e-01 1.439647e-01 -1.058881e-01 1.439647e-01 9.091880e-06 -2.618287e-04
4.725055e+10 4.869525e-06 -2.660944e-04 -4.078902e-02 1.737541e-01 -4.078902e-02 1.737541e-01 4.869525e-06 -2.660944e-04
4.730054e+10 -1.580456e-06 -2.657903e-04 3.068474e-02 1.755819e-01 3.068474e-02 1.755819e-01 -1.580456e-06 -2.657903e-04
4.735053e+10 -6.278355e-06 -2.607421e-04 9.704664e-02 1.492283e-01 9.704664e-02 1.492283e-01 -6.278355e-06 -2.607421e-04
4.740052e+10 -6.361032e-06 -2.536894e-04 1.476606e-01 9.899636e-02 1.476606e-01 9.899636e-02 -6.361032e-06 -2.536894e-04
4.745051e+10 -1.827623e-06 -2.485747e-04 1.744458e-01 3.300975e-02 1.744458e-01 3.300975e-02 -1.827623e-06 -2.485747e-04
4.750050e+10 4.489593e-06 -2.481105e-04 1.731663e-01 -3.810093e-02 1.731663e-01 -3.810093e-02 4.489593e-06 -2.481105e-04
4.755049e+10 8.692899e-06 -2.521277e-04 1.441012e-01 -1.029107e-01 1.441012e-01 -1.029107e-01 8.692899e-06 -2.521277e-04
4.760048e+10 8.222430e-06 -2.577092e-04 9.198753e-02 -1.510358e-01 9.198753e-02 -1.510358e-01 8.222430e-06 -2.577092e-04
4.765047e+10 3.413420e-06 -2.610085e-04 2.524877e-02 -1.747970e-01 2.524877e-02 -1.747970e-01 3.413420e-06 -2.610085e-04
4.770046e+10 -2.739601e-06 -2.596207e-04 -4.536678e-02 -1.704451e-01 -4.536678e-02 -1.704451e-01 -2.739601e-06 -2.596207e-04
4.775045e+10 -6.448318e-06 -2.540428e-04 -1.085169e-01 -1.387523e-01 -1.085169e-01 -1.387523e-01 -6.448318e-06 -2.540428e-04
4.780044e+10 -5.463957e-06 -2.473394e-04 -1.540871e-01 -8.487620e-02 -1.540871e-01 -8.487620e-02 -5.463957e-06 -2.473394e-04
4.785043e+10 -4.414667e-07 -2.432342e-04 -1.748105e-01 -1.752065e-02 -1.748105e-01 -1.752065e-02 -4.414667e-07 -2.432342e-04
4.790042e+10 5.492642e-06 -2.438184e-04 -1.674267e-01 5.247004e-02 -1.674267e-01 5.247004e-02 5.492642e-06 -2.438184e-04
4.795041e+10 8.684891e-06 -2.482840e-04 -1.331943e-01 1.138572e-01 -1.331943e-01 1.138572e-01 8.684891e-06 -2.482840e-04
4.800040e+10 7.202624e-06 -2.534498e-04 -7.767697e-02 1.568121e-01 -7.767697e-02 1.568121e-01 7.202624e-06 -2.534498e-04
4.805039e+10 2.002246e-06 -2.557387e-04 -9.839735e-03 1.744899e-01 -9.839735e-03 1.744899e-01 2.002246e-06 -2.557387e-04
4.810038e+10 -3.687846e-06 -2.533769e-04 5.939892e-02 1.641200e-01 5.939892e-02 1.641200e-01 -3.687846e-06 -2.533769e-04
4.815037e+10 -6.372341e-06 -2.474644e-04 1.189242e-01 1.274397e-01 1.189242e-01 1.274397e-01 -6.372341e-06 -2.474644e-04
4.820036e+10 -4.437004e-06 -2.412692e-04 1.592091e-01 7.040445e-02 1.592091e-01 7.040445e-02 -4.437004e-06 -2.412692e-04
4.825035e+10 8.802157e-07 -2.381995e-04 1.738393e-01 2.220151e-03 1.738393e-01 2.220151e-03 8.802157e-07 -2.381995e-04
4.830034e+10 6.278716e-06 -2.397104e-04 1.605341e-01 -6.614204e-02 1.605341e-01 -6.614204e-02 6.278716e-06 -2.397104e-04
4.835033e+10 8.442470e-06 -2.444309e-04 1.215017e-01 -1.237112e-01 1.215017e-01 -1.237112e-01 8.442470e-06 -2.444309e-04
4.840032e+10 6.075349e-06 -2.490354e-04 6.307325e-02 -1.612770e-01 6.307325e-02 -1.612770e-01 6.075349e-06 -2.490354e-04
4.845031e+10 6.754988e-07 -2.503047e-04 -5.324247e-03 -1.728634e-01 -5.324247e-03 -1.728634e-01 6.754988e-07 -2.503047e-04
4.850030e+10 -4.413317e-06 -2.471007e-04 -7.268852e-02 -1.566789e-01 -7.268852e-02 -1.566789e-01 -4.413317e-06 -2.471007e-04
4.855029e+10 -6.073190e-06 -2.410434e-04 -1.282119e-01 -1.153935e-01 -1.282119e-01 -1.153935e-01 -6.073190e-06 -2.410434e-04
4.860028e+10 -3.323254e-06 -2.354874e-04 -1.630152e-01 -5.569792e-02 -1.630152e-01 -5.569792e-02 -3.323254e-06 -2.354874e-04
4.865027e+10 2.100687e-06 -2.334452e-04 -1.715673e-01 1.277989e-02 -1.715673e-01 1.277989e-02 2.100687e-06 -2.334452e-04
4.870026e+10 6.839916e-06 -2.357420e-04 -1.525646e-01 7.902795e-02 -1.525646e-01 7.902795e-02 6.839916e-06 -2.357420e-04
4.875025e+10 7.991126e-06 -2.405318e-04 -1.091283e-01 1.324208e-01 -1.091283e-01 1.324208e-01 7.991126e-06 -2.405318e-04
4.880024e+10 4.883484e-06 -2.444586e-04 -4.829295e-02 1.644238e-01 -4.829295e-02 1.644238e-01 4.883484e-06 -2.444586e-04
4.885023e+10 -5.330718e-07 -2.447320e-04 2.013353e-02 1.699570e-01 2.013353e-02 1.699570e-01 -5.330718e-07 -2.447320e-04
4.890022e+10 -4.912034e-06 -2.408335e-04 8.515043e-02 1.482015e-01 8.515043e-02 1.482015e-01 -4.912034e-06 -2.408335e-04
4.895021e+10 -5.578805e-06 -2.348109e-04 1.363330e-01 1.027199e-01 1.363330e-01 1.027199e-01 -5.578805e-06 -2.348109e-04
4.900020e+10 -2.165090e-06 -2.299948e-04 1.655037e-01 4.087274e-02 1.655037e-01 4.087274e-02 -2.165090e-06 -2.299948e-04
4.905019e+10 3.189294e-06 -2.289410e-04 1.680387e-01 -2.737222e-02 1.680387e-01 -2.737222e-02 3.189294e-06 -2.289410e-04
4.910018e+10 7.176017e-06 -2.318700e-04 1.436007e-01 -9.104658e-02 1.436007e-01 -9.104658e-02 7.176017e-06 -2.318700e-04
4.915017e+10 7.360885e-06 -2.365562e-04 9.618183e-02 -1.399440e-01 9.618183e-02 -1.399440e-01 7.360885e-06 -2.365562e-04
4.920016e+10 3.668551e-06 -2.397198e-04 3.345157e-02 -1.662561e-01 3.345157e-02 -1.662561e-01 3.668551e-06 -2.397198e-04
4.925015e+10 -1.596074e-06 -2.390504e-04 -3.448340e-02 -1.658193e-01 -3.448340e-02 -1.658193e-01 -1.596074e-06 -2.390504e-04
4.930014e+10 -5.187423e-06 -2.346148e-04 -9.670752e-02 -1.387734e-01 -9.670752e-02 -1.387734e-01 -5.187423e-06 -2.346148e-04
4.935013e+10 -4.921018e-06 -2.287912e-04 -1.432501e-01 -8.952793e-02 -1.432501e-01 -8.952793e-02 -4.921018e-06 -2.287912e-04
4.940012e+10 -1.002915e-06 -2.247850e-04 -1.666831e-01 -2.604356e-02 -1.666831e-01 -2.604356e-02 -1.002915e-06 -2.247850e-04
4.945011e+10 4.121957e-06 -2.246530e-04 -1.633061e-01 4.145486e-02 -1.633061e-01 4.145486e-02 4.121957e-06 -2.246530e-04
4.950010e+10 7.293880e-06 -2.280534e-04 -1.337310e-01 1.021249e-01 -1.337310e-01 1.021249e-01 7.293880e-06 -2.280534e-04
4.955009e+10 6.585015e-06 -2.324807e-04 -8.277204e-02 1.462483e-01 -8.277204e-02 1.462483e-01 6.585015e-06 -2.324807e-04
4.960008e+10 2.469516e-06 -2.348262e-04 -1.866267e-02 1.667872e-01 -1.866267e-02 1.667872e-01 2.469516e-06 -2.348262e-04
4.965007e+10 -2.492840e-06 -2.332923e-04 4.827479e-02 1.605071e-01 4.827479e-02 1.605071e-01 -2.492840e-06 -2.332923e-04
4.970006e+10 -5.249627e-06 -2.284817e-04 1.072910e-01 1.284855e-01 1.072910e-01 1.284855e-01 -5.249627e-06 -2.284817e-04
4.975005e+10 -4.134244e-06 -2.230022e-04 1.489359e-01 7.592809e-02 1.489359e-01 7.592809e-02 -4.134244e-06 -2.230022e-04
4.980004e+10 1.259632e-07 -2.198450e-04 1.665716e-01 1.132267e-02 1.665716e-01 1.132267e-02 1.259632e-07 -2.198450e-04
4.985003e+10 4.881414e-06 -2.205451e-04 1.574304e-01 -5.493179e-02 1.574304e-01 -5.493179e-02 4.881414e-06 -2.205451e-04
4.990002e+10 7.206682e-06 -2.242546e-04 1.230488e-01 -1.121986e-01 1.230488e-01 -1.121986e-01 7.206682e-06 -2.242546e-04
4.995001e+10 5.698720e-06 -2.282884e-04 6.901002e-02 -1.513112e-01 6.901002e-02 -1.513112e-01 5.698720e-06 -2.282884e-04
5.000000e+10 1.321757e-06 -2.297913e-04 4.037083e-03 -1.660400e-01 4.037083e-03 -1.660400e-01 1.321757e-06 -2.297913e-04
